[TITLE]
TERRA05 Ward L Existing-only network; 26 Jul 2005 reconstructed rainfall
Data-constrained engineering estimate. Pilot boundaries are artificial; not calibrated.

[OPTIONS]
FLOW_UNITS CMS
INFILTRATION HORTON
FLOW_ROUTING DYNWAVE
START_DATE 07/26/2005
START_TIME 00:00:00
REPORT_START_DATE 07/26/2005
REPORT_START_TIME 00:00:00
END_DATE 07/27/2005
END_TIME 03:00:00
REPORT_STEP 00:15:00
WET_STEP 00:01:00
DRY_STEP 00:05:00
ROUTING_STEP 00:00:05
ALLOW_PONDING YES
MIN_SLOPE 0

[EVAPORATION]
CONSTANT 0.0
DRY_ONLY NO

[RAINGAGES]
RG_2005 VOLUME 0:15 1.0 TIMESERIES TS_2005_JULY26

[TIMESERIES]
TS_2005_JULY26 07/26/2005 00:00 0.018000
TS_2005_JULY26 07/26/2005 00:15 0.036000
TS_2005_JULY26 07/26/2005 00:30 0.054000
TS_2005_JULY26 07/26/2005 00:45 0.081000
TS_2005_JULY26 07/26/2005 01:00 0.117000
TS_2005_JULY26 07/26/2005 01:15 0.144000
TS_2005_JULY26 07/26/2005 01:30 0.144000
TS_2005_JULY26 07/26/2005 01:45 0.117000
TS_2005_JULY26 07/26/2005 02:00 0.081000
TS_2005_JULY26 07/26/2005 02:15 0.054000
TS_2005_JULY26 07/26/2005 02:30 0.036000
TS_2005_JULY26 07/26/2005 02:45 0.018000
TS_2005_JULY26 07/26/2005 03:00 0.000000
TS_2005_JULY26 07/26/2005 03:15 0.000000
TS_2005_JULY26 07/26/2005 03:30 0.000000
TS_2005_JULY26 07/26/2005 03:45 0.000000
TS_2005_JULY26 07/26/2005 04:00 0.000000
TS_2005_JULY26 07/26/2005 04:15 0.000000
TS_2005_JULY26 07/26/2005 04:30 0.000000
TS_2005_JULY26 07/26/2005 04:45 0.000000
TS_2005_JULY26 07/26/2005 05:00 0.000000
TS_2005_JULY26 07/26/2005 05:15 0.000000
TS_2005_JULY26 07/26/2005 05:30 0.000000
TS_2005_JULY26 07/26/2005 05:45 0.000000
TS_2005_JULY26 07/26/2005 06:00 0.350000
TS_2005_JULY26 07/26/2005 06:15 0.700000
TS_2005_JULY26 07/26/2005 06:30 1.050000
TS_2005_JULY26 07/26/2005 06:45 1.575000
TS_2005_JULY26 07/26/2005 07:00 2.275000
TS_2005_JULY26 07/26/2005 07:15 2.800000
TS_2005_JULY26 07/26/2005 07:30 2.800000
TS_2005_JULY26 07/26/2005 07:45 2.275000
TS_2005_JULY26 07/26/2005 08:00 1.575000
TS_2005_JULY26 07/26/2005 08:15 1.050000
TS_2005_JULY26 07/26/2005 08:30 0.700000
TS_2005_JULY26 07/26/2005 08:45 0.350000
TS_2005_JULY26 07/26/2005 09:00 8.634000
TS_2005_JULY26 07/26/2005 09:15 17.268000
TS_2005_JULY26 07/26/2005 09:30 25.902000
TS_2005_JULY26 07/26/2005 09:45 38.853000
TS_2005_JULY26 07/26/2005 10:00 56.121000
TS_2005_JULY26 07/26/2005 10:15 69.072000
TS_2005_JULY26 07/26/2005 10:30 69.072000
TS_2005_JULY26 07/26/2005 10:45 56.121000
TS_2005_JULY26 07/26/2005 11:00 38.853000
TS_2005_JULY26 07/26/2005 11:15 25.902000
TS_2005_JULY26 07/26/2005 11:30 17.268000
TS_2005_JULY26 07/26/2005 11:45 8.634000
TS_2005_JULY26 07/26/2005 12:00 4.352000
TS_2005_JULY26 07/26/2005 12:15 8.704000
TS_2005_JULY26 07/26/2005 12:30 13.056000
TS_2005_JULY26 07/26/2005 12:45 19.584000
TS_2005_JULY26 07/26/2005 13:00 28.288000
TS_2005_JULY26 07/26/2005 13:15 34.816000
TS_2005_JULY26 07/26/2005 13:30 34.816000
TS_2005_JULY26 07/26/2005 13:45 28.288000
TS_2005_JULY26 07/26/2005 14:00 19.584000
TS_2005_JULY26 07/26/2005 14:15 13.056000
TS_2005_JULY26 07/26/2005 14:30 8.704000
TS_2005_JULY26 07/26/2005 14:45 4.352000
TS_2005_JULY26 07/26/2005 15:00 2.024000
TS_2005_JULY26 07/26/2005 15:15 4.048000
TS_2005_JULY26 07/26/2005 15:30 6.072000
TS_2005_JULY26 07/26/2005 15:45 9.108000
TS_2005_JULY26 07/26/2005 16:00 13.156000
TS_2005_JULY26 07/26/2005 16:15 16.192000
TS_2005_JULY26 07/26/2005 16:30 16.192000
TS_2005_JULY26 07/26/2005 16:45 13.156000
TS_2005_JULY26 07/26/2005 17:00 9.108000
TS_2005_JULY26 07/26/2005 17:15 6.072000
TS_2005_JULY26 07/26/2005 17:30 4.048000
TS_2005_JULY26 07/26/2005 17:45 2.024000
TS_2005_JULY26 07/26/2005 18:00 2.322000
TS_2005_JULY26 07/26/2005 18:15 4.644000
TS_2005_JULY26 07/26/2005 18:30 6.966000
TS_2005_JULY26 07/26/2005 18:45 10.449000
TS_2005_JULY26 07/26/2005 19:00 15.093000
TS_2005_JULY26 07/26/2005 19:15 18.576000
TS_2005_JULY26 07/26/2005 19:30 18.576000
TS_2005_JULY26 07/26/2005 19:45 15.093000
TS_2005_JULY26 07/26/2005 20:00 10.449000
TS_2005_JULY26 07/26/2005 20:15 6.966000
TS_2005_JULY26 07/26/2005 20:30 4.644000
TS_2005_JULY26 07/26/2005 20:45 2.322000
TS_2005_JULY26 07/26/2005 21:00 0.220000
TS_2005_JULY26 07/26/2005 21:15 0.440000
TS_2005_JULY26 07/26/2005 21:30 0.660000
TS_2005_JULY26 07/26/2005 21:45 0.990000
TS_2005_JULY26 07/26/2005 22:00 1.430000
TS_2005_JULY26 07/26/2005 22:15 1.760000
TS_2005_JULY26 07/26/2005 22:30 1.760000
TS_2005_JULY26 07/26/2005 22:45 1.430000
TS_2005_JULY26 07/26/2005 23:00 0.990000
TS_2005_JULY26 07/26/2005 23:15 0.660000
TS_2005_JULY26 07/26/2005 23:30 0.440000
TS_2005_JULY26 07/26/2005 23:45 0.220000
TS_2005_JULY26 07/27/2005 00:00 0.964000
TS_2005_JULY26 07/27/2005 00:15 1.928000
TS_2005_JULY26 07/27/2005 00:30 2.892000
TS_2005_JULY26 07/27/2005 00:45 4.338000
TS_2005_JULY26 07/27/2005 01:00 6.266000
TS_2005_JULY26 07/27/2005 01:15 7.712000
TS_2005_JULY26 07/27/2005 01:30 7.712000
TS_2005_JULY26 07/27/2005 01:45 6.266000
TS_2005_JULY26 07/27/2005 02:00 4.338000
TS_2005_JULY26 07/27/2005 02:15 2.892000
TS_2005_JULY26 07/27/2005 02:30 1.928000
TS_2005_JULY26 07/27/2005 02:45 0.964000

[SUBCATCHMENTS]
SC_22963 RG_2005 N_2175084101_b4b5d69 1.00000000 61.818 100.000 6.4120 1
SC_22964 RG_2005 N_2175084101_b4b5d69 1.00000000 1.653 100.000 7.8404 1
SC_23248 RG_2005 N_2175075903_9d85d98 1.00000000 94.215 100.000 20.8190 1
SC_23249 RG_2005 N_2175086001_d6cf941 1.00000000 68.595 100.000 12.1422 1
SC_23250 RG_2005 N_2175086001_d6cf941 1.00000000 82.645 100.000 12.4800 1
SC_23251 RG_2005 N_2175084101_b4b5d69 1.00000000 98.182 100.000 4.1253 1
SC_23252 RG_2005 N_2175084101_b4b5d69 1.00000000 52.893 100.000 6.2853 1
SC_23253 RG_2005 N_2175086503_f360a45 1.00000000 0.000 100.000 3.4779 1
SC_23536 RG_2005 N_2175086001_d6cf941 1.00000000 97.521 100.000 15.8991 1
SC_23537 RG_2005 N_2175086001_d6cf941 1.00000000 80.165 100.000 9.6937 1
SC_23538 RG_2005 N_2175086001_d6cf941 1.00000000 67.769 100.000 17.6379 1
SC_23539 RG_2005 N_2175086001_d6cf941 1.00000000 73.636 100.000 12.7789 1
SC_23540 RG_2005 N_2175086503_f360a45 1.00000000 91.736 100.000 3.7284 1
SC_23541 RG_2005 N_2175086503_f360a45 1.00000000 56.198 100.000 6.0161 1
SC_23542 RG_2005 N_2175086503_f360a45 1.00000000 3.306 100.000 8.6041 1
SC_23543 RG_2005 N_2175086503_f360a45 1.00000000 8.264 100.000 3.9596 1
SC_23823 RG_2005 N_2175078701_f7ed602 1.00000000 95.041 100.000 6.3802 1
SC_23824 RG_2005 N_2175086001_d6cf941 1.00000000 65.289 100.000 6.9649 1
SC_23825 RG_2005 N_2175086001_d6cf941 1.00000000 11.570 100.000 7.7098 1
SC_23826 RG_2005 N_2175086001_d6cf941 1.00000000 5.455 100.000 6.5812 1
SC_23827 RG_2005 N_2175086503_f360a45 1.00000000 58.678 100.000 13.4098 1
SC_23828 RG_2005 N_2175086503_f360a45 1.00000000 92.562 100.000 4.6613 1
SC_23829 RG_2005 N_2175086503_f360a45 1.00000000 80.992 100.000 5.4040 1
SC_23830 RG_2005 N_2175087701_307a8c8 1.00000000 28.926 100.000 6.0355 1
SC_23831 RG_2005 N_2175087701_307a8c8 1.00000000 1.653 100.000 6.7057 1
SC_23832 RG_2005 N_2175087701_307a8c8 1.00000000 0.000 100.000 5.0047 1
SC_24105 RG_2005 N_2175078701_f7ed602 1.00000000 10.744 100.000 4.5219 1
SC_24106 RG_2005 N_2175078701_f7ed602 1.00000000 66.116 100.000 11.4577 1
SC_24107 RG_2005 N_2175078701_f7ed602 1.00000000 72.727 100.000 7.1581 1
SC_24108 RG_2005 N_2175086001_d6cf941 1.00000000 51.240 100.000 10.5562 1
SC_24109 RG_2005 N_2175086001_d6cf941 1.00000000 42.727 100.000 36.9336 1
SC_24110 RG_2005 N_2175086503_f360a45 1.00000000 100.000 100.000 31.5959 1
SC_24111 RG_2005 N_2175086503_f360a45 1.00000000 24.793 100.000 9.7987 1
SC_24112 RG_2005 N_2175086503_f360a45 1.00000000 68.595 100.000 4.5353 1
SC_24113 RG_2005 N_2175087701_307a8c8 1.00000000 79.339 100.000 4.4550 1
SC_24114 RG_2005 N_2175087701_307a8c8 1.00000000 90.083 100.000 3.3341 1
SC_24115 RG_2005 N_2175087701_307a8c8 1.00000000 56.198 100.000 5.5188 1
SC_24116 RG_2005 N_2175087701_307a8c8 1.00000000 22.314 100.000 5.6978 1
SC_24117 RG_2005 N_2175087802_d57e4ad 1.00000000 0.000 100.000 4.7671 1
SC_24118 RG_2005 N_2175087802_d57e4ad 1.00000000 0.000 100.000 3.3692 1
SC_24387 RG_2005 N_2176071701_9f759a2 1.00000000 41.322 100.000 9.3865 1
SC_24388 RG_2005 N_2176071702_59a7195 1.00000000 79.339 100.000 8.5059 1
SC_24389 RG_2005 N_2176071703_4e2b333 1.00000000 97.521 100.000 8.8626 1
SC_24390 RG_2005 N_2176071704_56ea7ff 1.00000000 52.893 100.000 9.3731 1
SC_24391 RG_2005 N_2176072702_71463f0 1.00000000 98.182 100.000 21.1742 1
SC_24392 RG_2005 N_2175086503_f360a45 1.00000000 95.868 100.000 30.3222 1
SC_24393 RG_2005 N_2175086503_f360a45 1.00000000 63.636 100.000 19.9591 1
SC_24394 RG_2005 N_2175087701_307a8c8 1.00000000 7.438 100.000 5.3039 1
SC_24395 RG_2005 N_2175087701_307a8c8 1.00000000 43.802 100.000 3.4573 1
SC_24396 RG_2005 N_2175087701_307a8c8 1.00000000 95.041 100.000 3.8457 1
SC_24397 RG_2005 N_2175087701_307a8c8 1.00000000 95.868 100.000 4.2879 1
SC_24398 RG_2005 N_2175087701_307a8c8 1.00000000 73.554 100.000 5.7112 1
SC_24399 RG_2005 N_2175087701_307a8c8 1.00000000 67.769 100.000 6.7310 1
SC_24400 RG_2005 N_2175087802_d57e4ad 1.00000000 38.843 100.000 5.7743 1
SC_24401 RG_2005 N_2175087802_d57e4ad 1.00000000 0.000 100.000 2.6629 1
SC_24402 RG_2005 N_2175087802_d57e4ad 1.00000000 0.000 100.000 4.3809 1
SC_24668 RG_2005 N_2176071704_56ea7ff 1.00000000 52.066 100.000 9.0926 1
SC_24669 RG_2005 N_2176072704_1014117 1.00000000 55.372 100.000 9.7346 1
SC_24670 RG_2005 N_2176072702_71463f0 1.00000000 88.430 100.000 7.6723 1
SC_24671 RG_2005 N_2176072703_95ff69c 1.00000000 52.893 100.000 3.5425 1
SC_24672 RG_2005 N_2176073801_a5dacee 1.00000000 96.364 100.000 9.1704 1
SC_24673 RG_2005 N_2176086301_5cf361c 1.00000000 77.686 100.000 16.8188 1
SC_24674 RG_2005 N_2176086302_6929b9d 1.00000000 91.736 100.000 20.7632 1
SC_24675 RG_2005 N_2175087701_307a8c8 1.00000000 5.785 100.000 8.5448 1
SC_24676 RG_2005 N_2175087701_307a8c8 1.00000000 0.000 100.000 6.7378 1
SC_24677 RG_2005 N_2175087701_307a8c8 1.00000000 20.661 100.000 4.0577 1
SC_24678 RG_2005 N_2175087701_307a8c8 1.00000000 75.207 100.000 8.0279 1
SC_24679 RG_2005 N_2175087701_307a8c8 1.00000000 87.603 100.000 7.0793 1
SC_24680 RG_2005 N_2175087701_307a8c8 1.00000000 96.694 100.000 5.6396 1
SC_24681 RG_2005 N_2175087701_307a8c8 1.00000000 100.000 100.000 3.8590 1
SC_24682 RG_2005 N_2175087701_307a8c8 1.00000000 48.760 100.000 8.6631 1
SC_24683 RG_2005 N_2175087802_d57e4ad 1.00000000 0.000 100.000 4.3388 1
SC_24684 RG_2005 N_2176100102_06bd050 1.00000000 0.000 100.000 3.9413 1
SC_24685 RG_2005 N_2176100102_06bd050 1.00000000 0.000 100.000 4.9629 1
SC_24692 RG_2005 N_2176101102_5f7c28b 1.00000000 14.876 100.000 12.8428 1
SC_24693 RG_2005 N_2176101102_5f7c28b 1.00000000 57.025 100.000 13.1776 1
SC_24694 RG_2005 N_2176100501_68ba9bb 1.00000000 89.256 100.000 10.6914 1
SC_24695 RG_2005 N_2176100501_68ba9bb 1.00000000 75.207 100.000 4.8353 1
SC_24945 RG_2005 N_2176072702_71463f0 1.00000000 60.331 100.000 7.7782 1
SC_24946 RG_2005 N_2176072703_95ff69c 1.00000000 71.901 100.000 19.0874 1
SC_24947 RG_2005 N_2176073801_a5dacee 1.00000000 57.025 100.000 11.9212 1
SC_24948 RG_2005 N_2176073802_480cb59 1.00000000 62.810 100.000 8.0395 1
SC_24949 RG_2005 N_2176073804_1c0ec4a 1.00000000 66.942 100.000 8.8038 1
SC_24950 RG_2005 N_2176086202_7ddaa94 1.00000000 81.818 100.000 4.1678 1
SC_24951 RG_2005 N_2176086301_5cf361c 1.00000000 81.818 100.000 15.8638 1
SC_24952 RG_2005 N_2176086302_6929b9d 1.00000000 43.802 100.000 18.1550 1
SC_24953 RG_2005 N_2176086303_526c342 1.00000000 40.496 100.000 8.6657 1
SC_24954 RG_2005 N_2176086303_526c342 1.00000000 36.364 100.000 7.5842 1
SC_24955 RG_2005 N_2175087701_307a8c8 1.00000000 0.000 100.000 4.8014 1
SC_24956 RG_2005 N_2175087701_307a8c8 1.00000000 26.446 100.000 5.1273 1
SC_24957 RG_2005 N_2175087701_307a8c8 1.00000000 72.727 100.000 5.2691 1
SC_24958 RG_2005 N_2175087701_307a8c8 1.00000000 97.521 100.000 4.0797 1
SC_24959 RG_2005 N_2176098001_d21d76b 1.00000000 85.950 100.000 3.5975 1
SC_24960 RG_2005 N_2176098001_d21d76b 1.00000000 55.372 100.000 9.0825 1
SC_24961 RG_2005 N_2176098001_d21d76b 1.00000000 4.132 100.000 7.1319 1
SC_24962 RG_2005 N_2176100102_06bd050 1.00000000 20.661 100.000 11.1661 1
SC_24963 RG_2005 N_2176100102_06bd050 1.00000000 5.785 100.000 11.5419 1
SC_24964 RG_2005 N_2176100102_06bd050 1.00000000 19.835 100.000 12.3476 1
SC_24965 RG_2005 N_2176100102_06bd050 1.00000000 14.050 100.000 13.3304 1
SC_24966 RG_2005 N_2176101101_c5fc24d 1.00000000 9.091 100.000 17.2102 1
SC_24967 RG_2005 N_2176101102_5f7c28b 1.00000000 8.264 100.000 18.1141 1
SC_24968 RG_2005 N_2176101102_5f7c28b 1.00000000 46.281 100.000 5.4251 1
SC_24969 RG_2005 N_2176101102_5f7c28b 1.00000000 73.554 100.000 5.3028 1
SC_24970 RG_2005 N_2176101102_5f7c28b 1.00000000 94.215 100.000 11.0875 1
SC_24971 RG_2005 N_2176101102_5f7c28b 1.00000000 98.347 100.000 7.8692 1
SC_24972 RG_2005 N_2176100501_68ba9bb 1.00000000 84.298 100.000 21.6324 1
SC_24973 RG_2005 N_2176100501_68ba9bb 1.00000000 99.174 100.000 12.3512 1
SC_24974 RG_2005 N_2176100501_68ba9bb 1.00000000 48.182 100.000 5.9325 1
SC_25224 RG_2005 N_2176073802_480cb59 1.00000000 58.678 100.000 14.6590 1
SC_25225 RG_2005 N_2176073804_1c0ec4a 1.00000000 72.727 100.000 21.5032 1
SC_25226 RG_2005 N_2176073806_afc4d43 1.00000000 83.471 100.000 7.9181 1
SC_25227 RG_2005 N_2176074802_098b0d7 1.00000000 76.033 100.000 9.6161 1
SC_25228 RG_2005 N_2176074803_6da0216 1.00000000 25.620 100.000 8.6025 1
SC_25229 RG_2005 N_2176086202_7ddaa94 1.00000000 41.818 100.000 5.4612 1
SC_25230 RG_2005 N_2176086301_5cf361c 1.00000000 83.471 100.000 6.3432 1
SC_25231 RG_2005 N_2176086302_6929b9d 1.00000000 78.512 100.000 8.6130 1
SC_25232 RG_2005 N_2176086303_526c342 1.00000000 41.322 100.000 11.4088 1
SC_25233 RG_2005 N_2176086303_526c342 1.00000000 2.479 100.000 8.2110 1
SC_25234 RG_2005 N_2176086401_7b3c66b 1.00000000 0.000 100.000 4.9759 1
SC_25235 RG_2005 N_2176088901_cc3f2c4 1.00000000 27.273 100.000 4.1587 1
SC_25236 RG_2005 N_2176088901_cc3f2c4 1.00000000 75.207 100.000 5.6705 1
SC_25237 RG_2005 N_2176098001_d21d76b 1.00000000 86.777 100.000 7.7471 1
SC_25238 RG_2005 N_2176098001_d21d76b 1.00000000 94.215 100.000 6.4946 1
SC_25239 RG_2005 N_2176098001_d21d76b 1.00000000 96.694 100.000 8.7923 1
SC_25240 RG_2005 N_2176098001_d21d76b 1.00000000 87.603 100.000 8.1563 1
SC_25241 RG_2005 N_2176098001_d21d76b 1.00000000 74.380 100.000 8.6329 1
SC_25242 RG_2005 N_2176101101_c5fc24d 1.00000000 71.074 100.000 6.8084 1
SC_25243 RG_2005 N_2176101101_c5fc24d 1.00000000 70.248 100.000 5.9597 1
SC_25244 RG_2005 N_2176101102_5f7c28b 1.00000000 87.603 100.000 11.7697 1
SC_25245 RG_2005 N_2176101102_5f7c28b 1.00000000 67.769 100.000 14.4539 1
SC_25246 RG_2005 N_2176101102_5f7c28b 1.00000000 84.298 100.000 12.0329 1
SC_25247 RG_2005 N_2176101102_5f7c28b 1.00000000 94.215 100.000 7.2869 1
SC_25248 RG_2005 N_2176101102_5f7c28b 1.00000000 100.000 100.000 2.8374 1
SC_25249 RG_2005 N_2176101102_5f7c28b 1.00000000 99.174 100.000 3.1530 1
SC_25250 RG_2005 N_2176101102_5f7c28b 1.00000000 97.521 100.000 5.3485 1
SC_25251 RG_2005 N_2176100501_68ba9bb 1.00000000 100.000 100.000 18.1185 1
SC_25252 RG_2005 N_2176100501_68ba9bb 1.00000000 100.000 100.000 6.4204 1
SC_25253 RG_2005 N_2176106601_62e551d 1.00000000 87.273 100.000 4.5025 1
SC_25501 RG_2005 N_2176076601_c2ace87 1.00000000 38.843 100.000 19.7512 1
SC_25502 RG_2005 N_2176074802_098b0d7 1.00000000 41.322 100.000 19.6836 1
SC_25503 RG_2005 N_2176074803_6da0216 1.00000000 73.554 100.000 14.2522 1
SC_25504 RG_2005 N_2176075801_0e27744 1.00000000 75.207 100.000 17.2157 1
SC_25505 RG_2005 N_2176075801_0e27744 1.00000000 72.727 100.000 7.8779 1
SC_25506 RG_2005 N_2176086101_a38cf1c 1.00000000 31.405 100.000 8.9538 1
SC_25507 RG_2005 N_2176086202_7ddaa94 1.00000000 62.727 100.000 12.1028 1
SC_25508 RG_2005 N_2176086301_5cf361c 1.00000000 57.025 100.000 11.3688 1
SC_25509 RG_2005 N_2176086302_6929b9d 1.00000000 76.033 100.000 35.2498 1
SC_25510 RG_2005 N_2176086303_526c342 1.00000000 75.207 100.000 33.8169 1
SC_25511 RG_2005 N_2176086401_7b3c66b 1.00000000 57.025 100.000 30.4038 1
SC_25512 RG_2005 N_2176087402_64d4229 1.00000000 21.488 100.000 33.2771 1
SC_25513 RG_2005 N_2176088901_cc3f2c4 1.00000000 25.620 100.000 28.1133 1
SC_25514 RG_2005 N_2176088901_cc3f2c4 1.00000000 73.554 100.000 23.1383 1
SC_25515 RG_2005 N_2176098001_d21d76b 1.00000000 24.793 100.000 15.3026 1
SC_25516 RG_2005 N_2176098001_d21d76b 1.00000000 95.041 100.000 8.7854 1
SC_25517 RG_2005 N_2176098001_d21d76b 1.00000000 94.215 100.000 5.0935 1
SC_25518 RG_2005 N_2176098001_d21d76b 1.00000000 98.347 100.000 5.9046 1
SC_25519 RG_2005 N_2176098001_d21d76b 1.00000000 93.388 100.000 11.0959 1
SC_25520 RG_2005 N_2176099901_2949adf 1.00000000 87.603 100.000 6.3895 1
SC_25521 RG_2005 N_2176099901_2949adf 1.00000000 78.512 100.000 9.9928 1
SC_25522 RG_2005 N_2176101102_5f7c28b 1.00000000 80.165 100.000 4.9622 1
SC_25523 RG_2005 N_2176101102_5f7c28b 1.00000000 63.636 100.000 7.1904 1
SC_25524 RG_2005 N_2176101102_5f7c28b 1.00000000 81.818 100.000 9.4557 1
SC_25525 RG_2005 N_2176101102_5f7c28b 1.00000000 90.083 100.000 22.6349 1
SC_25526 RG_2005 N_2176101102_5f7c28b 1.00000000 99.174 100.000 19.7691 1
SC_25527 RG_2005 N_2176101102_5f7c28b 1.00000000 99.174 100.000 6.8528 1
SC_25528 RG_2005 N_2176106601_62e551d 1.00000000 100.000 100.000 7.2528 1
SC_25529 RG_2005 N_2176106601_62e551d 1.00000000 95.868 100.000 8.1275 1
SC_25530 RG_2005 N_2176106601_62e551d 1.00000000 66.116 100.000 8.0255 1
SC_25531 RG_2005 N_2176106601_62e551d 1.00000000 94.545 100.000 4.8542 1
SC_25532 RG_2005 N_2176105901_8e4a718 1.00000000 43.802 100.000 4.9873 1
SC_25778 RG_2005 N_2176076602_0e22cfc 1.00000000 76.860 100.000 41.7425 1
SC_25779 RG_2005 N_2176076701_cdfd89d 1.00000000 64.463 100.000 39.7379 1
SC_25780 RG_2005 N_2176075802_7265b2c 1.00000000 92.562 100.000 10.8586 1
SC_25781 RG_2005 N_2176075803_5ac6f74 1.00000000 61.157 100.000 15.7180 1
SC_25782 RG_2005 N_2176086001_5cc4aa8 1.00000000 47.934 100.000 18.2915 1
SC_25783 RG_2005 N_2176086101_a38cf1c 1.00000000 21.488 100.000 8.1290 1
SC_25784 RG_2005 N_2176086203_2aca2bf 1.00000000 11.818 100.000 7.5113 1
SC_25785 RG_2005 N_2176086301_5cf361c 1.00000000 84.298 100.000 9.9340 1
SC_25786 RG_2005 N_2176086303_526c342 1.00000000 43.802 100.000 17.5137 1
SC_25787 RG_2005 N_2176086401_7b3c66b 1.00000000 79.339 100.000 22.6894 1
SC_25788 RG_2005 N_2176087402_64d4229 1.00000000 100.000 100.000 19.4905 1
SC_25789 RG_2005 N_2176087403_6b00b44 1.00000000 98.347 100.000 19.3537 1
SC_25790 RG_2005 N_2176088902_9d88842 1.00000000 90.909 100.000 18.6845 1
SC_25791 RG_2005 N_2176088901_cc3f2c4 1.00000000 76.033 100.000 27.6273 1
SC_25792 RG_2005 N_2176098001_d21d76b 1.00000000 77.686 100.000 17.1085 1
SC_25793 RG_2005 N_2176098001_d21d76b 1.00000000 67.769 100.000 8.3251 1
SC_25794 RG_2005 N_2176098001_d21d76b 1.00000000 100.000 100.000 7.4712 1
SC_25795 RG_2005 N_2176098001_d21d76b 1.00000000 93.388 100.000 3.8986 1
SC_25796 RG_2005 N_2176098001_d21d76b 1.00000000 93.388 100.000 5.8544 1
SC_25797 RG_2005 N_2176099901_2949adf 1.00000000 90.083 100.000 7.1790 1
SC_25798 RG_2005 N_2176099901_2949adf 1.00000000 85.124 100.000 11.4186 1
SC_25799 RG_2005 N_2176099901_2949adf 1.00000000 65.289 100.000 17.0829 1
SC_25800 RG_2005 N_2176099901_2949adf 1.00000000 70.248 100.000 13.1420 1
SC_25801 RG_2005 N_2176099901_2949adf 1.00000000 68.595 100.000 13.1881 1
SC_25802 RG_2005 N_2176099901_2949adf 1.00000000 85.950 100.000 17.8565 1
SC_25803 RG_2005 N_2176101102_5f7c28b 1.00000000 84.298 100.000 18.3052 1
SC_25804 RG_2005 N_2176106601_62e551d 1.00000000 87.603 100.000 17.3601 1
SC_25805 RG_2005 N_2176106601_62e551d 1.00000000 93.388 100.000 22.8094 1
SC_25806 RG_2005 N_2176106601_62e551d 1.00000000 95.868 100.000 8.1047 1
SC_25807 RG_2005 N_2176106601_62e551d 1.00000000 66.116 100.000 7.2271 1
SC_25808 RG_2005 N_2176106601_62e551d 1.00000000 96.364 100.000 4.2415 1
SC_25809 RG_2005 N_2176106603_7914d1d 1.00000000 100.000 100.000 2.9779 1
SC_25810 RG_2005 N_2176105901_8e4a718 1.00000000 69.421 100.000 6.5709 1
SC_26054 RG_2005 N_2176076502_fa0a3e2 1.00000000 56.198 100.000 10.8369 1
SC_26055 RG_2005 N_2176076603_5ddb875 1.00000000 70.248 100.000 31.5031 1
SC_26057 RG_2005 N_2176076801_2040d1c 1.00000000 60.331 100.000 7.0619 1
SC_26058 RG_2005 N_2176076903_c0208e6 1.00000000 49.587 100.000 18.8770 1
SC_26059 RG_2005 N_2176086001_5cc4aa8 1.00000000 36.364 100.000 22.9396 1
SC_26060 RG_2005 N_2176086102_931c4ca 1.00000000 9.917 100.000 4.1499 1
SC_26061 RG_2005 N_2176086203_2aca2bf 1.00000000 0.000 100.000 5.7378 1
SC_26062 RG_2005 N_2176086302_6929b9d 1.00000000 4.132 100.000 6.8923 1
SC_26063 RG_2005 N_2176086401_7b3c66b 1.00000000 26.446 100.000 9.3035 1
SC_26064 RG_2005 N_2176087402_64d4229 1.00000000 79.339 100.000 14.2405 1
SC_26065 RG_2005 N_2176087403_6b00b44 1.00000000 90.083 100.000 8.5494 1
SC_26066 RG_2005 N_2176088802_b897a7c 1.00000000 90.909 100.000 13.2789 1
SC_26067 RG_2005 N_2176088902_9d88842 1.00000000 64.463 100.000 7.1067 1
SC_26068 RG_2005 N_2176088901_cc3f2c4 1.00000000 87.603 100.000 5.9121 1
SC_26069 RG_2005 N_2176098001_d21d76b 1.00000000 96.694 100.000 6.4654 1
SC_26070 RG_2005 N_2176098001_d21d76b 1.00000000 90.909 100.000 7.0441 1
SC_26071 RG_2005 N_2176098001_d21d76b 1.00000000 95.041 100.000 4.6668 1
SC_26072 RG_2005 N_2176098001_d21d76b 1.00000000 82.645 100.000 8.9883 1
SC_26073 RG_2005 N_2176098001_d21d76b 1.00000000 71.901 100.000 6.6180 1
SC_26074 RG_2005 N_2177090802_e63eda5 1.00000000 90.083 100.000 6.2640 1
SC_26075 RG_2005 N_2176099901_2949adf 1.00000000 60.331 100.000 5.5155 1
SC_26076 RG_2005 N_2176099901_2949adf 1.00000000 96.694 100.000 18.0490 1
SC_26077 RG_2005 N_2176099901_2949adf 1.00000000 99.174 100.000 17.9094 1
SC_26078 RG_2005 N_2176099901_2949adf 1.00000000 89.256 100.000 7.3704 1
SC_26079 RG_2005 N_2176099901_2949adf 1.00000000 74.380 100.000 8.2900 1
SC_26080 RG_2005 N_2176109301_1b777ce 1.00000000 75.207 100.000 15.9992 1
SC_26081 RG_2005 N_2176109301_1b777ce 1.00000000 90.909 100.000 14.3557 1
SC_26082 RG_2005 N_2176106601_62e551d 1.00000000 100.000 100.000 8.6315 1
SC_26083 RG_2005 N_2176106601_62e551d 1.00000000 75.207 100.000 4.3738 1
SC_26084 RG_2005 N_2176106601_62e551d 1.00000000 95.868 100.000 6.0599 1
SC_26085 RG_2005 N_2176106602_0cbc3ed 1.00000000 98.182 100.000 5.6848 1
SC_26086 RG_2005 N_2176107602_79bd1fd 1.00000000 97.521 100.000 4.6827 1
SC_26087 RG_2005 N_2176106801_bf8d0f2 1.00000000 66.942 100.000 5.7020 1
SC_26336 RG_2005 N_2176086001_5cc4aa8 1.00000000 58.678 100.000 12.8018 1
SC_26337 RG_2005 N_2176086103_2bf23f1 1.00000000 26.446 100.000 4.4954 1
SC_26338 RG_2005 N_2176086203_2aca2bf 1.00000000 0.909 100.000 8.3523 1
SC_26339 RG_2005 N_2176086401_7b3c66b 1.00000000 8.264 100.000 8.9801 1
SC_26340 RG_2005 N_2176087401_b77efbf 1.00000000 12.397 100.000 2.8610 1
SC_26341 RG_2005 N_2176087501_49b2d2f 1.00000000 16.529 100.000 9.8580 1
SC_26342 RG_2005 N_2176088502_f037251 1.00000000 76.860 100.000 8.9485 1
SC_26343 RG_2005 N_2176088701_ba542e6 1.00000000 87.603 100.000 8.5130 1
SC_26344 RG_2005 N_2176088801_16b37d2 1.00000000 89.256 100.000 4.5828 1
SC_26345 RG_2005 N_2176088901_cc3f2c4 1.00000000 80.992 100.000 14.8267 1
SC_26346 RG_2005 N_2176098001_d21d76b 1.00000000 74.380 100.000 12.6605 1
SC_26347 RG_2005 N_2176098001_d21d76b 1.00000000 95.041 100.000 3.0757 1
SC_26348 RG_2005 N_2176098001_d21d76b 1.00000000 86.777 100.000 3.9463 1
SC_26349 RG_2005 N_2176098001_d21d76b 1.00000000 98.347 100.000 4.8157 1
SC_26350 RG_2005 N_2176098001_d21d76b 1.00000000 94.215 100.000 5.4384 1
SC_26351 RG_2005 N_2177090804_3926b73 1.00000000 91.736 100.000 7.0773 1
SC_26352 RG_2005 N_2177090801_a03e9cd 1.00000000 73.554 100.000 5.9474 1
SC_26353 RG_2005 N_2176099901_2949adf 1.00000000 98.347 100.000 6.7919 1
SC_26354 RG_2005 N_2176099901_2949adf 1.00000000 87.603 100.000 7.3951 1
SC_26355 RG_2005 N_2176099901_2949adf 1.00000000 98.347 100.000 4.9844 1
SC_26356 RG_2005 N_2176099901_2949adf 1.00000000 93.388 100.000 4.3746 1
SC_26357 RG_2005 N_2176109301_1b777ce 1.00000000 87.603 100.000 9.0092 1
SC_26358 RG_2005 N_2176109301_1b777ce 1.00000000 95.868 100.000 13.8417 1
SC_26359 RG_2005 N_2176109301_1b777ce 1.00000000 98.347 100.000 3.7617 1
SC_26360 RG_2005 N_2176106601_62e551d 1.00000000 100.000 100.000 4.5067 1
SC_26361 RG_2005 N_2176106601_62e551d 1.00000000 98.347 100.000 8.4086 1
SC_26362 RG_2005 N_2176107601_d6fa215 1.00000000 98.182 100.000 9.0242 1
SC_26363 RG_2005 N_2176107702_f4322de 1.00000000 83.471 100.000 4.0791 1
SC_26364 RG_2005 N_2176107801_5ebb080 1.00000000 22.314 100.000 3.4087 1
SC_26368 RG_2005 N_2176118001_39083b9 1.00000000 0.000 100.000 5.4287 1
SC_26369 RG_2005 N_2176118502_221d21f 1.00000000 52.893 100.000 9.0430 1
SC_26370 RG_2005 N_2176118501_30ef276 1.00000000 35.537 100.000 7.0363 1
SC_26613 RG_2005 N_2176086003_11b71e7 1.00000000 61.157 100.000 17.2924 1
SC_26614 RG_2005 N_2176086004_94a18e3 1.00000000 20.661 100.000 6.2169 1
SC_26615 RG_2005 N_2176086204_da92bfd 1.00000000 1.818 100.000 7.1506 1
SC_26616 RG_2005 N_2176087401_b77efbf 1.00000000 3.306 100.000 7.5141 1
SC_26617 RG_2005 N_2176087501_49b2d2f 1.00000000 33.058 100.000 4.0823 1
SC_26618 RG_2005 N_2176088503_630d152 1.00000000 16.529 100.000 6.0931 1
SC_26619 RG_2005 N_2176088601_6c16cc9 1.00000000 76.033 100.000 7.6069 1
SC_26620 RG_2005 N_2176088701_ba542e6 1.00000000 94.215 100.000 7.2072 1
SC_26621 RG_2005 N_2176088802_b897a7c 1.00000000 92.562 100.000 9.5465 1
SC_26622 RG_2005 N_2176088902_9d88842 1.00000000 88.430 100.000 13.6154 1
SC_26623 RG_2005 N_2176098001_d21d76b 1.00000000 84.298 100.000 7.4490 1
SC_26624 RG_2005 N_2176098001_d21d76b 1.00000000 93.388 100.000 3.0362 1
SC_26625 RG_2005 N_2176098001_d21d76b 1.00000000 96.694 100.000 2.6955 1
SC_26626 RG_2005 N_2176098001_d21d76b 1.00000000 93.388 100.000 2.3815 1
SC_26627 RG_2005 N_2177092501_2349ecf 1.00000000 100.000 100.000 2.8735 1
SC_26628 RG_2005 N_2177090701_c78889e 1.00000000 95.868 100.000 2.3404 1
SC_26629 RG_2005 N_2177090803_0c0163c 1.00000000 86.777 100.000 2.4919 1
SC_26630 RG_2005 N_2177090801_a03e9cd 1.00000000 84.298 100.000 7.7767 1
SC_26631 RG_2005 N_2176099901_2949adf 1.00000000 91.736 100.000 9.0860 1
SC_26632 RG_2005 N_2176099901_2949adf 1.00000000 90.083 100.000 9.9097 1
SC_26633 RG_2005 N_2176099901_2949adf 1.00000000 95.041 100.000 4.9119 1
SC_26634 RG_2005 N_2176109301_1b777ce 1.00000000 100.000 100.000 3.8255 1
SC_26635 RG_2005 N_2176109301_1b777ce 1.00000000 99.174 100.000 9.8829 1
SC_26636 RG_2005 N_2176109301_1b777ce 1.00000000 96.694 100.000 10.0447 1
SC_26637 RG_2005 N_2176109301_1b777ce 1.00000000 100.000 100.000 10.2268 1
SC_26638 RG_2005 N_2176107601_d6fa215 1.00000000 98.347 100.000 7.7904 1
SC_26639 RG_2005 N_2176107701_5656f59 1.00000000 99.091 100.000 7.7391 1
SC_26640 RG_2005 N_2176108703_1fbd9f6 1.00000000 47.107 100.000 8.9899 1
SC_26641 RG_2005 N_2176108701_1a50e7b 1.00000000 73.554 100.000 5.0215 1
SC_26642 RG_2005 N_2176118001_39083b9 1.00000000 29.752 100.000 4.9259 1
SC_26643 RG_2005 N_2176118003_eb21573 1.00000000 12.397 100.000 7.5006 1
SC_26644 RG_2005 N_2176118004_79d834f 1.00000000 7.438 100.000 7.2847 1
SC_26645 RG_2005 N_2176118004_79d834f 1.00000000 34.711 100.000 4.9992 1
SC_26646 RG_2005 N_2176118502_221d21f 1.00000000 80.165 100.000 4.0059 1
SC_26647 RG_2005 N_2176118502_221d21f 1.00000000 91.736 100.000 6.0449 1
SC_26648 RG_2005 N_2176118502_221d21f 1.00000000 82.645 100.000 7.4930 1
SC_26649 RG_2005 N_2176118503_c10c827 1.00000000 42.975 100.000 9.5391 1
SC_26650 RG_2005 N_2176118503_c10c827 1.00000000 36.364 100.000 7.8630 1
SC_26651 RG_2005 N_2176118503_c10c827 1.00000000 37.190 100.000 5.1462 1
SC_26652 RG_2005 N_2177110601_26a2074 1.00000000 46.281 100.000 2.0472 1
SC_26653 RG_2005 N_2177110601_26a2074 1.00000000 52.066 100.000 1.2218 1
SC_26654 RG_2005 N_2177110601_26a2074 1.00000000 61.983 100.000 0.8865 1
SC_26655 RG_2005 N_2177110601_26a2074 1.00000000 85.950 100.000 2.2850 1
SC_26656 RG_2005 N_2177120801_2c22465 1.00000000 30.579 100.000 5.5552 1
SC_26657 RG_2005 N_2177120801_2c22465 1.00000000 78.512 100.000 5.6842 1
SC_26658 RG_2005 N_2177120801_2c22465 1.00000000 65.289 100.000 5.3426 1
SC_26664 RG_2005 N_2176138203_88f3c46 1.00000000 60.331 100.000 15.7266 1
SC_26888 RG_2005 N_2177070903_ca91bbb 1.00000000 96.694 100.000 11.3395 1
SC_26889 RG_2005 N_2177081202_94efd71 1.00000000 27.273 100.000 6.1841 1
SC_26890 RG_2005 N_2177080304_f17e8e9 1.00000000 66.364 100.000 6.6321 1
SC_26891 RG_2005 N_2177080301_b6e9bb1 1.00000000 3.306 100.000 6.2502 1
SC_26892 RG_2005 N_2177080402_969d5bf 1.00000000 7.438 100.000 9.1364 1
SC_26893 RG_2005 N_2176089502_d486bff 1.00000000 30.579 100.000 6.2933 1
SC_26894 RG_2005 N_2176089605_6d3dd75 1.00000000 51.240 100.000 5.9526 1
SC_26895 RG_2005 N_2176089701_d08f7d5 1.00000000 64.463 100.000 13.2344 1
SC_26896 RG_2005 N_2176088802_b897a7c 1.00000000 72.727 100.000 23.9053 1
SC_26897 RG_2005 N_2176088902_9d88842 1.00000000 94.215 100.000 17.9399 1
SC_26898 RG_2005 N_2176098001_d21d76b 1.00000000 75.207 100.000 22.9668 1
SC_26899 RG_2005 N_2176098001_d21d76b 1.00000000 71.901 100.000 9.3842 1
SC_26900 RG_2005 N_2176098001_d21d76b 1.00000000 78.512 100.000 9.9584 1
SC_26901 RG_2005 N_2177092401_7537805 1.00000000 95.041 100.000 5.9375 1
SC_26902 RG_2005 N_2177092501_2349ecf 1.00000000 96.694 100.000 4.0139 1
SC_26903 RG_2005 N_2177091704_fe7e7bb 1.00000000 92.562 100.000 7.1326 1
SC_26904 RG_2005 N_2177090701_c78889e 1.00000000 97.521 100.000 4.5916 1
SC_26905 RG_2005 N_2177090803_0c0163c 1.00000000 90.083 100.000 5.4233 1
SC_26906 RG_2005 N_2177090801_a03e9cd 1.00000000 71.074 100.000 3.8198 1
SC_26907 RG_2005 N_2176099901_2949adf 1.00000000 88.430 100.000 10.7915 1
SC_26908 RG_2005 N_2176099901_2949adf 1.00000000 82.645 100.000 5.8104 1
SC_26909 RG_2005 N_2177100301_bf71906 1.00000000 78.512 100.000 15.9733 1
SC_26910 RG_2005 N_2176109301_1b777ce 1.00000000 98.347 100.000 14.2330 1
SC_26911 RG_2005 N_2176109301_1b777ce 1.00000000 98.347 100.000 9.5595 1
SC_26912 RG_2005 N_2176109301_1b777ce 1.00000000 100.000 100.000 7.2522 1
SC_26913 RG_2005 N_2176109301_1b777ce 1.00000000 96.694 100.000 3.3190 1
SC_26914 RG_2005 N_2176109702_db64615 1.00000000 90.909 100.000 6.4365 1
SC_26915 RG_2005 N_2176109703_e06719e 1.00000000 98.347 100.000 8.1009 1
SC_26916 RG_2005 N_2176109704_37204f3 1.00000000 96.694 100.000 9.8652 1
SC_26917 RG_2005 N_2176119001_348a82b 1.00000000 95.868 100.000 7.6794 1
SC_26918 RG_2005 N_2176119002_4416c31 1.00000000 72.727 100.000 7.1014 1
SC_26919 RG_2005 N_2177110003_ab1158a 1.00000000 78.512 100.000 4.6576 1
SC_26920 RG_2005 N_2177110102_cba2c39 1.00000000 89.256 100.000 6.0108 1
SC_26921 RG_2005 N_2177111202_77d0ffa 1.00000000 55.372 100.000 8.9206 1
SC_26922 RG_2005 N_2177110501_d9cae41 1.00000000 93.388 100.000 4.5097 1
SC_26923 RG_2005 N_2177110501_d9cae41 1.00000000 69.421 100.000 7.8895 1
SC_26924 RG_2005 N_2177110601_26a2074 1.00000000 98.347 100.000 4.1857 1
SC_26925 RG_2005 N_2177110601_26a2074 1.00000000 97.521 100.000 6.3153 1
SC_26926 RG_2005 N_2177110601_26a2074 1.00000000 95.868 100.000 8.2235 1
SC_26927 RG_2005 N_2177110601_26a2074 1.00000000 63.636 100.000 2.8135 1
SC_26928 RG_2005 N_2177110601_26a2074 1.00000000 95.868 100.000 2.7422 1
SC_26929 RG_2005 N_2177110601_26a2074 1.00000000 90.083 100.000 2.4109 1
SC_26930 RG_2005 N_2177113803_64e8895 1.00000000 80.992 100.000 2.9851 1
SC_26931 RG_2005 N_2177120801_2c22465 1.00000000 100.000 100.000 5.2513 1
SC_26932 RG_2005 N_2177120801_2c22465 1.00000000 99.174 100.000 3.8038 1
SC_26933 RG_2005 N_2177120801_2c22465 1.00000000 95.868 100.000 3.8599 1
SC_26934 RG_2005 N_2177120801_2c22465 1.00000000 33.884 100.000 3.9061 1
SC_26939 RG_2005 N_2176138203_88f3c46 1.00000000 94.215 100.000 8.7501 1
SC_26940 RG_2005 N_2176138203_88f3c46 1.00000000 97.521 100.000 5.4324 1
SC_26941 RG_2005 N_2176138202_dce6190 1.00000000 57.025 100.000 14.1496 1
SC_27163 RG_2005 N_2177081102_5cf7c24 1.00000000 15.702 100.000 7.0104 1
SC_27164 RG_2005 N_2177080201_f51465d 1.00000000 27.273 100.000 5.6280 1
SC_27165 RG_2005 N_2177080302_fca8c8c 1.00000000 19.835 100.000 10.7764 1
SC_27166 RG_2005 N_2177080403_c12370f 1.00000000 39.669 100.000 6.5247 1
SC_27167 RG_2005 N_2177080501_1878b33 1.00000000 52.066 100.000 13.5430 1
SC_27168 RG_2005 N_2177080601_1876fb5 1.00000000 25.620 100.000 9.9595 1
SC_27169 RG_2005 N_2177080701_b026bd4 1.00000000 62.810 100.000 11.7707 1
SC_27170 RG_2005 N_2177081702_4166f45 1.00000000 84.298 100.000 15.1663 1
SC_27171 RG_2005 N_2176088801_16b37d2 1.00000000 51.240 100.000 13.5564 1
SC_27172 RG_2005 N_2176098001_d21d76b 1.00000000 25.620 100.000 18.4236 1
SC_27173 RG_2005 N_2176098001_d21d76b 1.00000000 91.736 100.000 7.8900 1
SC_27174 RG_2005 N_2177093304_60c95e3 1.00000000 78.512 100.000 9.2094 1
SC_27175 RG_2005 N_2177092402_243058d 1.00000000 84.298 100.000 23.6278 1
SC_27176 RG_2005 N_2177092501_2349ecf 1.00000000 62.810 100.000 10.9713 1
SC_27177 RG_2005 N_2177092501_2349ecf 1.00000000 88.430 100.000 5.0120 1
SC_27178 RG_2005 N_2177091704_fe7e7bb 1.00000000 95.041 100.000 11.7090 1
SC_27179 RG_2005 N_2177090701_c78889e 1.00000000 93.388 100.000 4.9822 1
SC_27180 RG_2005 N_2177090803_0c0163c 1.00000000 90.083 100.000 5.0823 1
SC_27181 RG_2005 N_2177090801_a03e9cd 1.00000000 98.347 100.000 9.1166 1
SC_27182 RG_2005 N_2176099901_2949adf 1.00000000 82.645 100.000 12.3847 1
SC_27183 RG_2005 N_2177101201_e4cef8c 1.00000000 88.430 100.000 17.1608 1
SC_27184 RG_2005 N_2177100305_54b0b32 1.00000000 96.694 100.000 4.7315 1
SC_27185 RG_2005 N_2177100303_e50a4e8 1.00000000 83.471 100.000 4.7708 1
SC_27186 RG_2005 N_2177100302_044deef 1.00000000 70.248 100.000 3.2126 1
SC_27187 RG_2005 N_2176109302_d044bf7 1.00000000 90.909 100.000 3.1008 1
SC_27188 RG_2005 N_2177101703_2922d9b 1.00000000 92.727 100.000 4.7634 1
SC_27189 RG_2005 N_2177100702_51fee5a 1.00000000 90.083 100.000 9.5031 1
SC_27190 RG_2005 N_2177100702_51fee5a 1.00000000 78.512 100.000 6.4032 1
SC_27191 RG_2005 N_2177110002_8991bd4 1.00000000 90.909 100.000 8.7963 1
SC_27192 RG_2005 N_2177110002_8991bd4 1.00000000 94.215 100.000 9.0770 1
SC_27193 RG_2005 N_2177110101_8e456f0 1.00000000 90.083 100.000 8.3063 1
SC_27194 RG_2005 N_2177111201_5cee703 1.00000000 53.719 100.000 10.4489 1
SC_27195 RG_2005 N_2177111301_28b5bbe 1.00000000 78.512 100.000 11.2360 1
SC_27196 RG_2005 N_2177110501_d9cae41 1.00000000 52.893 100.000 13.0413 1
SC_27197 RG_2005 N_2177110501_d9cae41 1.00000000 80.165 100.000 6.3106 1
SC_27198 RG_2005 N_2177110602_196f320 1.00000000 91.736 100.000 4.9523 1
SC_27199 RG_2005 N_2177110602_196f320 1.00000000 98.347 100.000 4.6310 1
SC_27200 RG_2005 N_2177110601_26a2074 1.00000000 87.603 100.000 4.7085 1
SC_27201 RG_2005 N_2177110601_26a2074 1.00000000 66.116 100.000 2.7555 1
SC_27202 RG_2005 N_2177113803_64e8895 1.00000000 88.430 100.000 2.6958 1
SC_27203 RG_2005 N_2177113803_64e8895 1.00000000 59.504 100.000 7.3770 1
SC_27204 RG_2005 N_2177113803_64e8895 1.00000000 63.636 100.000 11.0887 1
SC_27205 RG_2005 N_2177120801_2c22465 1.00000000 100.000 100.000 4.8866 1
SC_27206 RG_2005 N_2177120801_2c22465 1.00000000 95.041 100.000 3.3957 1
SC_27207 RG_2005 N_2177120801_2c22465 1.00000000 99.174 100.000 5.6606 1
SC_27208 RG_2005 N_2177120801_2c22465 1.00000000 35.537 100.000 2.9904 1
SC_27209 RG_2005 N_2177120801_2c22465 1.00000000 11.570 100.000 1.9351 1
SC_27212 RG_2005 N_2177121802_e5c6611 1.00000000 69.091 100.000 7.1029 1
SC_27213 RG_2005 N_2176138203_88f3c46 1.00000000 97.521 100.000 6.7089 1
SC_27214 RG_2005 N_2176138203_88f3c46 1.00000000 95.041 100.000 24.7872 1
SC_27215 RG_2005 N_2176138203_88f3c46 1.00000000 97.521 100.000 7.9816 1
SC_27216 RG_2005 N_2176138202_dce6190 1.00000000 83.471 100.000 5.1251 1
SC_27217 RG_2005 N_2176138202_dce6190 1.00000000 44.628 100.000 14.7182 1
SC_27436 RG_2005 N_2177081103_fb1b7a9 1.00000000 33.058 100.000 7.8854 1
SC_27437 RG_2005 N_2177081202_94efd71 1.00000000 44.545 100.000 8.4927 1
SC_27438 RG_2005 N_2177080304_f17e8e9 1.00000000 70.248 100.000 3.5925 1
SC_27439 RG_2005 N_2177080301_b6e9bb1 1.00000000 85.124 100.000 3.7155 1
SC_27440 RG_2005 N_2177080402_969d5bf 1.00000000 61.157 100.000 8.4087 1
SC_27441 RG_2005 N_2177081701_03b374c 1.00000000 76.860 100.000 11.4376 1
SC_27442 RG_2005 N_2177081703_59085ff 1.00000000 65.289 100.000 17.7914 1
SC_27443 RG_2005 N_2177082701_64b66c6 1.00000000 90.083 100.000 14.8949 1
SC_27444 RG_2005 N_2177082801_096d134 1.00000000 80.165 100.000 13.4957 1
SC_27445 RG_2005 N_2177082806_e66ae24 1.00000000 68.595 100.000 16.6692 1
SC_27446 RG_2005 N_2177093203_9ee3ff8 1.00000000 88.430 100.000 10.4425 1
SC_27447 RG_2005 N_2177093304_60c95e3 1.00000000 97.521 100.000 7.6862 1
SC_27448 RG_2005 N_2177093401_3ff6c52 1.00000000 96.694 100.000 14.4643 1
SC_27449 RG_2005 N_2177092508_5db4028 1.00000000 80.992 100.000 20.7085 1
SC_27450 RG_2005 N_2177092501_2349ecf 1.00000000 56.198 100.000 9.0271 1
SC_27451 RG_2005 N_2177092601_ea8b11d 1.00000000 85.950 100.000 3.5289 1
SC_27452 RG_2005 N_2177091702_216f270 1.00000000 72.727 100.000 9.1705 1
SC_27453 RG_2005 N_2177090701_c78889e 1.00000000 94.215 100.000 5.6817 1
SC_27454 RG_2005 N_2177090803_0c0163c 1.00000000 100.000 100.000 5.8760 1
SC_27455 RG_2005 N_2176099902_e02183a 1.00000000 87.603 100.000 12.2427 1
SC_27456 RG_2005 N_2177101203_bc9e3b7 1.00000000 89.256 100.000 8.2237 1
SC_27457 RG_2005 N_2177101203_bc9e3b7 1.00000000 90.083 100.000 8.0507 1
SC_27458 RG_2005 N_2177101202_588d887 1.00000000 82.645 100.000 5.4461 1
SC_27459 RG_2005 N_2177102301_49b63df 1.00000000 87.603 100.000 2.8284 1
SC_27460 RG_2005 N_2177101704_dc7b6b9 1.00000000 93.388 100.000 7.1272 1
SC_27461 RG_2005 N_2177101704_dc7b6b9 1.00000000 95.455 100.000 7.1729 1
SC_27462 RG_2005 N_2177101704_dc7b6b9 1.00000000 80.165 100.000 8.9112 1
SC_27463 RG_2005 N_2177100704_4948111 1.00000000 97.521 100.000 3.3852 1
SC_27464 RG_2005 N_2177110002_8991bd4 1.00000000 95.041 100.000 6.6677 1
SC_27465 RG_2005 N_2177110104_9b7fec1 1.00000000 71.074 100.000 13.2101 1
SC_27466 RG_2005 N_2177110104_9b7fec1 1.00000000 95.041 100.000 11.0773 1
SC_27467 RG_2005 N_2177111202_77d0ffa 1.00000000 90.909 100.000 10.6869 1
SC_27468 RG_2005 N_2177111302_b62ca2e 1.00000000 94.215 100.000 10.4568 1
SC_27469 RG_2005 N_2177112401_ec76b77 1.00000000 17.355 100.000 12.5466 1
SC_27470 RG_2005 N_2177112402_0fc4d73 1.00000000 72.727 100.000 11.6768 1
SC_27471 RG_2005 N_2177110602_196f320 1.00000000 61.983 100.000 5.3922 1
SC_27472 RG_2005 N_2177110602_196f320 1.00000000 58.678 100.000 4.2599 1
SC_27473 RG_2005 N_2177113702_06ae46b 1.00000000 76.033 100.000 4.1151 1
SC_27474 RG_2005 N_2177113803_64e8895 1.00000000 56.198 100.000 4.4366 1
SC_27475 RG_2005 N_2177113803_64e8895 1.00000000 57.025 100.000 4.8239 1
SC_27476 RG_2005 N_2177113803_64e8895 1.00000000 98.347 100.000 4.6514 1
SC_27477 RG_2005 N_2177113803_64e8895 1.00000000 94.215 100.000 3.7932 1
SC_27478 RG_2005 N_2177120801_2c22465 1.00000000 90.083 100.000 4.3367 1
SC_27479 RG_2005 N_2177120801_2c22465 1.00000000 84.298 100.000 7.0945 1
SC_27480 RG_2005 N_2177120801_2c22465 1.00000000 100.000 100.000 6.5683 1
SC_27481 RG_2005 N_2177120801_2c22465 1.00000000 98.347 100.000 6.0076 1
SC_27482 RG_2005 N_2177121801_3e99182 1.00000000 76.860 100.000 4.8573 1
SC_27483 RG_2005 N_2177121802_e5c6611 1.00000000 78.512 100.000 4.5422 1
SC_27484 RG_2005 N_2177121803_bc7f21f 1.00000000 88.430 100.000 7.8056 1
SC_27485 RG_2005 N_2177121803_bc7f21f 1.00000000 81.818 100.000 5.0292 1
SC_27486 RG_2005 N_2177123903_d28e1b8 1.00000000 72.727 100.000 5.5527 1
SC_27487 RG_2005 N_2176138203_88f3c46 1.00000000 97.521 100.000 9.2078 1
SC_27488 RG_2005 N_2176138203_88f3c46 1.00000000 90.909 100.000 6.6700 1
SC_27489 RG_2005 N_2176138202_dce6190 1.00000000 100.000 100.000 7.6785 1
SC_27490 RG_2005 N_2176138202_dce6190 1.00000000 71.901 100.000 9.6474 1
SC_27709 RG_2005 N_2177083201_8dbe169 1.00000000 75.207 100.000 9.3418 1
SC_27710 RG_2005 N_2177080302_fca8c8c 1.00000000 73.554 100.000 10.7220 1
SC_27711 RG_2005 N_2177081702_4166f45 1.00000000 34.711 100.000 8.7442 1
SC_27712 RG_2005 N_2177081706_d337653 1.00000000 57.851 100.000 16.0947 1
SC_27713 RG_2005 N_2177082701_64b66c6 1.00000000 73.554 100.000 9.5977 1
SC_27714 RG_2005 N_2177082804_c9609fd 1.00000000 72.727 100.000 14.9604 1
SC_27715 RG_2005 N_2177083801_8b81126 1.00000000 95.041 100.000 13.9192 1
SC_27716 RG_2005 N_2177083901_df49852 1.00000000 69.421 100.000 17.6797 1
SC_27717 RG_2005 N_2177093205_4c6da54 1.00000000 87.603 100.000 20.6150 1
SC_27718 RG_2005 N_2177093202_0896db6 1.00000000 65.289 100.000 15.3050 1
SC_27719 RG_2005 N_2177093302_82f871a 1.00000000 99.174 100.000 15.1123 1
SC_27720 RG_2005 N_2177092402_243058d 1.00000000 72.727 100.000 14.8864 1
SC_27721 RG_2005 N_2177092506_19523b1 1.00000000 31.405 100.000 13.7250 1
SC_27722 RG_2005 N_2177092602_52de2da 1.00000000 65.289 100.000 5.4876 1
SC_27723 RG_2005 N_2177092702_bd96f6f 1.00000000 65.289 100.000 8.5824 1
SC_27724 RG_2005 N_2177092801_86305a3 1.00000000 68.595 100.000 9.3059 1
SC_27725 RG_2005 N_2177093801_95fa9d0 1.00000000 96.694 100.000 6.2717 1
SC_27726 RG_2005 N_2177103103_98e1c62 1.00000000 94.215 100.000 7.0978 1
SC_27727 RG_2005 N_2177103102_eefbdb2 1.00000000 89.256 100.000 9.2870 1
SC_27728 RG_2005 N_2177102203_c56b30c 1.00000000 90.083 100.000 11.9107 1
SC_27729 RG_2005 N_2177102302_d3decd7 1.00000000 91.736 100.000 5.6086 1
SC_27730 RG_2005 N_2177102301_49b63df 1.00000000 97.521 100.000 4.6521 1
SC_27731 RG_2005 N_2177102301_49b63df 1.00000000 97.521 100.000 3.3732 1
SC_27732 RG_2005 N_2177102703_df8c1a4 1.00000000 92.727 100.000 4.4338 1
SC_27733 RG_2005 N_2177102704_678193c 1.00000000 88.430 100.000 6.1994 1
SC_27734 RG_2005 N_2177102704_678193c 1.00000000 94.215 100.000 9.3220 1
SC_27735 RG_2005 N_2177102704_678193c 1.00000000 95.868 100.000 6.8009 1
SC_27736 RG_2005 N_2177110104_9b7fec1 1.00000000 94.215 100.000 8.4299 1
SC_27737 RG_2005 N_2177111101_da0ab5a 1.00000000 92.562 100.000 5.3239 1
SC_27738 RG_2005 N_2177111301_28b5bbe 1.00000000 95.868 100.000 9.3061 1
SC_27739 RG_2005 N_2177112301_8f5980b 1.00000000 96.694 100.000 10.5579 1
SC_27740 RG_2005 N_2177112403_d000c72 1.00000000 90.909 100.000 8.3062 1
SC_27741 RG_2005 N_2177113501_21709c6 1.00000000 91.736 100.000 7.7709 1
SC_27742 RG_2005 N_2177113602_2bee81b 1.00000000 88.430 100.000 4.3046 1
SC_27743 RG_2005 N_2177113702_06ae46b 1.00000000 90.909 100.000 4.5212 1
SC_27744 RG_2005 N_2177113801_c413eb2 1.00000000 76.860 100.000 3.4319 1
SC_27745 RG_2005 N_2177113803_64e8895 1.00000000 79.339 100.000 3.0034 1
SC_27746 RG_2005 N_2177113803_64e8895 1.00000000 63.636 100.000 6.6965 1
SC_27747 RG_2005 N_2177113803_64e8895 1.00000000 100.000 100.000 1.9212 1
SC_27748 RG_2005 N_2177113803_64e8895 1.00000000 100.000 100.000 3.6959 1
SC_27749 RG_2005 N_2177113803_64e8895 1.00000000 80.165 100.000 5.8386 1
SC_27750 RG_2005 N_2177120801_2c22465 1.00000000 66.116 100.000 6.5940 1
SC_27751 RG_2005 N_2177121802_e5c6611 1.00000000 97.521 100.000 5.2719 1
SC_27752 RG_2005 N_2177122801_f7b19e6 1.00000000 100.000 100.000 2.7040 1
SC_27753 RG_2005 N_2177122802_63e71c6 1.00000000 96.694 100.000 3.3155 1
SC_27754 RG_2005 N_2177122802_63e71c6 1.00000000 95.868 100.000 5.5904 1
SC_27755 RG_2005 N_2177122803_4664021 1.00000000 72.727 100.000 7.8022 1
SC_27756 RG_2005 N_2177123903_d28e1b8 1.00000000 45.455 100.000 4.9479 1
SC_27757 RG_2005 N_2177123903_d28e1b8 1.00000000 85.950 100.000 7.0383 1
SC_27758 RG_2005 N_2177134001_f5ef8a0 1.00000000 82.645 100.000 5.0760 1
SC_27759 RG_2005 N_2177134001_f5ef8a0 1.00000000 86.777 100.000 7.2799 1
SC_27760 RG_2005 N_2177135201_0bfd5b9 1.00000000 77.686 100.000 6.5055 1
SC_27761 RG_2005 N_2177135201_0bfd5b9 1.00000000 98.347 100.000 7.5323 1
SC_27981 RG_2005 N_2177084301_576c3b2 1.00000000 12.397 100.000 6.1472 1
SC_27982 RG_2005 N_2177082801_096d134 1.00000000 23.140 100.000 6.7611 1
SC_27983 RG_2005 N_2177082805_fe77774 1.00000000 76.860 100.000 8.0385 1
SC_27984 RG_2005 N_2177083801_8b81126 1.00000000 61.983 100.000 3.8644 1
SC_27985 RG_2005 N_2177083902_e1c164f 1.00000000 58.678 100.000 11.0391 1
SC_27986 RG_2005 N_2177094002_aa79fe8 1.00000000 89.256 100.000 7.5426 1
SC_27987 RG_2005 N_2177094102_4c5bbb1 1.00000000 80.165 100.000 5.7034 1
SC_27988 RG_2005 N_2177093203_9ee3ff8 1.00000000 62.810 100.000 7.7455 1
SC_27989 RG_2005 N_2177093306_2f411fd 1.00000000 50.413 100.000 6.9861 1
SC_27990 RG_2005 N_2177093403_0a3ea9e 1.00000000 32.231 100.000 9.6712 1
SC_27991 RG_2005 N_2177092510_94dd35a 1.00000000 51.240 100.000 6.6777 1
SC_27992 RG_2005 N_2177092507_3af6afc 1.00000000 23.967 100.000 5.5114 1
SC_27993 RG_2005 N_2177092801_86305a3 1.00000000 46.281 100.000 7.3371 1
SC_27994 RG_2005 N_2177093802_d5be7f7 1.00000000 72.727 100.000 8.0152 1
SC_27995 RG_2005 N_2177093901_2c0b24c 1.00000000 92.562 100.000 10.4705 1
SC_27996 RG_2005 N_2177104001_865070c 1.00000000 97.521 100.000 7.4063 1
SC_27997 RG_2005 N_2177103103_98e1c62 1.00000000 59.504 100.000 7.2075 1
SC_27998 RG_2005 N_2177103202_d0126be 1.00000000 86.777 100.000 9.6197 1
SC_27999 RG_2005 N_2177103301_3af0ab3 1.00000000 66.116 100.000 6.1455 1
SC_28000 RG_2005 N_2177103301_3af0ab3 1.00000000 92.562 100.000 3.3314 1
SC_28001 RG_2005 N_2177103301_3af0ab3 1.00000000 97.521 100.000 3.5994 1
SC_28002 RG_2005 N_2177102704_678193c 1.00000000 94.545 100.000 4.4372 1
SC_28003 RG_2005 N_2177102704_678193c 1.00000000 89.256 100.000 6.3120 1
SC_28004 RG_2005 N_2177102704_678193c 1.00000000 98.347 100.000 5.2079 1
SC_28005 RG_2005 N_2177102704_678193c 1.00000000 91.736 100.000 9.3428 1
SC_28006 RG_2005 N_2177111101_da0ab5a 1.00000000 89.256 100.000 17.3089 1
SC_28007 RG_2005 N_2177111101_da0ab5a 1.00000000 95.868 100.000 7.7141 1
SC_28008 RG_2005 N_2177112301_8f5980b 1.00000000 100.000 100.000 2.6490 1
SC_28009 RG_2005 N_2177112407_cdbb09c 1.00000000 99.174 100.000 2.4952 1
SC_28010 RG_2005 N_2177113401_e3af9c7 1.00000000 99.174 100.000 7.9785 1
SC_28011 RG_2005 N_2177113505_ef88051 1.00000000 77.686 100.000 9.9401 1
SC_28012 RG_2005 N_2177113605_e4e81dd 1.00000000 69.421 100.000 5.9160 1
SC_28013 RG_2005 N_2177113702_06ae46b 1.00000000 33.058 100.000 5.5583 1
SC_28014 RG_2005 N_2177113801_c413eb2 1.00000000 68.595 100.000 5.4811 1
SC_28015 RG_2005 N_2177113803_64e8895 1.00000000 61.983 100.000 5.0179 1
SC_28016 RG_2005 N_2177113803_64e8895 1.00000000 63.636 100.000 5.6564 1
SC_28017 RG_2005 N_2177113803_64e8895 1.00000000 100.000 100.000 2.1927 1
SC_28018 RG_2005 N_2177113803_64e8895 1.00000000 100.000 100.000 4.0569 1
SC_28019 RG_2005 N_2177113803_64e8895 1.00000000 89.256 100.000 6.3332 1
SC_28020 RG_2005 N_2177122803_4664021 1.00000000 77.686 100.000 3.1129 1
SC_28021 RG_2005 N_2177123801_e38b294 1.00000000 93.388 100.000 4.5062 1
SC_28022 RG_2005 N_2177123801_e38b294 1.00000000 96.694 100.000 4.1258 1
SC_28023 RG_2005 N_2177123802_0089e09 1.00000000 80.992 100.000 7.0581 1
SC_28024 RG_2005 N_2177123803_283168f 1.00000000 66.116 100.000 5.3443 1
SC_28025 RG_2005 N_2177123902_f47f037 1.00000000 59.504 100.000 8.9808 1
SC_28026 RG_2005 N_2177123904_8b9e84f 1.00000000 67.273 100.000 10.0898 1
SC_28027 RG_2005 N_2177134001_f5ef8a0 1.00000000 79.339 100.000 9.3743 1
SC_28028 RG_2005 N_2177134003_0757b35 1.00000000 72.727 100.000 6.2121 1
SC_28029 RG_2005 N_2177135201_0bfd5b9 1.00000000 99.174 100.000 5.6648 1
SC_28030 RG_2005 N_2177135201_0bfd5b9 1.00000000 74.380 100.000 6.9928 1
SC_28031 RG_2005 N_2177135201_0bfd5b9 1.00000000 96.694 100.000 15.0620 1
SC_28032 RG_2005 N_2177138401_f68c5b7 1.00000000 68.595 100.000 33.2638 1
SC_28253 RG_2005 N_2177082806_e66ae24 1.00000000 65.289 100.000 8.8447 1
SC_28254 RG_2005 N_2177083802_b175fca 1.00000000 74.380 100.000 4.7027 1
SC_28255 RG_2005 N_2177083903_9107fc5 1.00000000 78.512 100.000 3.7967 1
SC_28256 RG_2005 N_2177084902_d94269e 1.00000000 71.901 100.000 8.5650 1
SC_28257 RG_2005 N_2177094004_a42d5f2 1.00000000 53.719 100.000 9.2699 1
SC_28258 RG_2005 N_2177094108_f3bb636 1.00000000 58.678 100.000 8.8509 1
SC_28259 RG_2005 N_2177094201_3badce6 1.00000000 57.851 100.000 12.6129 1
SC_28260 RG_2005 N_2177093307_b45f7a6 1.00000000 14.876 100.000 4.9011 1
SC_28261 RG_2005 N_2177093303_dbbce9e 1.00000000 57.025 100.000 6.0403 1
SC_28262 RG_2005 N_2177092403_56b2017 1.00000000 32.231 100.000 4.4516 1
SC_28263 RG_2005 N_2177092507_3af6afc 1.00000000 29.752 100.000 5.4521 1
SC_28264 RG_2005 N_2177093803_f805fc0 1.00000000 29.752 100.000 7.4758 1
SC_28265 RG_2005 N_2177093901_2c0b24c 1.00000000 62.810 100.000 9.2545 1
SC_28266 RG_2005 N_2177094902_6769a99 1.00000000 74.380 100.000 10.1082 1
SC_28267 RG_2005 N_2177104004_2b4a089 1.00000000 99.174 100.000 13.5705 1
SC_28268 RG_2005 N_2177104103_ef794f7 1.00000000 96.694 100.000 7.4221 1
SC_28269 RG_2005 N_2177104201_b804865 1.00000000 96.694 100.000 10.1215 1
SC_28270 RG_2005 N_2177104301_927681c 1.00000000 71.901 100.000 6.7974 1
SC_28271 RG_2005 N_2177104301_927681c 1.00000000 76.033 100.000 2.2089 1
SC_28272 RG_2005 N_2177105501_143e2ba 1.00000000 100.000 100.000 5.4296 1
SC_28273 RG_2005 N_2177105501_143e2ba 1.00000000 89.091 100.000 18.4657 1
SC_28274 RG_2005 N_2177102704_678193c 1.00000000 91.736 100.000 9.2955 1
SC_28275 RG_2005 N_2177102704_678193c 1.00000000 77.686 100.000 3.9869 1
SC_28276 RG_2005 N_2177102704_678193c 1.00000000 95.041 100.000 22.9685 1
SC_28277 RG_2005 N_2177116201_7590b69 1.00000000 82.645 100.000 15.1273 1
SC_28278 RG_2005 N_2177116201_7590b69 1.00000000 85.950 100.000 20.5107 1
SC_28279 RG_2005 N_2177116201_7590b69 1.00000000 68.595 100.000 10.4440 1
SC_28280 RG_2005 N_2177114501_331cf38 1.00000000 82.645 100.000 7.2818 1
SC_28281 RG_2005 N_2177114501_331cf38 1.00000000 95.041 100.000 9.4609 1
SC_28282 RG_2005 N_2177114502_890ea1a 1.00000000 72.727 100.000 5.4646 1
SC_28283 RG_2005 N_2177114502_890ea1a 1.00000000 38.017 100.000 6.3934 1
SC_28284 RG_2005 N_2177113703_9fb76ca 1.00000000 5.785 100.000 4.8970 1
SC_28285 RG_2005 N_2177113802_1f1efe6 1.00000000 0.000 100.000 12.6745 1
SC_28286 RG_2005 N_2177113804_f43206c 1.00000000 21.488 100.000 6.4667 1
SC_28287 RG_2005 N_2177113803_64e8895 1.00000000 79.339 100.000 5.3324 1
SC_28288 RG_2005 N_2177113803_64e8895 1.00000000 81.818 100.000 2.6514 1
SC_28289 RG_2005 N_2177113803_64e8895 1.00000000 98.347 100.000 2.1420 1
SC_28290 RG_2005 N_2177113803_64e8895 1.00000000 99.174 100.000 3.2466 1
SC_28291 RG_2005 N_2177123803_283168f 1.00000000 99.174 100.000 5.0905 1
SC_28292 RG_2005 N_2177123803_283168f 1.00000000 96.694 100.000 2.9493 1
SC_28293 RG_2005 N_2177123803_283168f 1.00000000 86.777 100.000 6.6844 1
SC_28294 RG_2005 N_2177123803_283168f 1.00000000 65.289 100.000 10.4833 1
SC_28295 RG_2005 N_2177123803_283168f 1.00000000 67.769 100.000 3.6556 1
SC_28296 RG_2005 N_2177124903_283ff99 1.00000000 48.760 100.000 7.8160 1
SC_28297 RG_2005 N_2177134002_fcb274e 1.00000000 84.545 100.000 12.9239 1
SC_28298 RG_2005 N_2177134003_0757b35 1.00000000 52.893 100.000 16.5179 1
SC_28299 RG_2005 N_2177135104_916b3a7 1.00000000 65.289 100.000 10.4914 1
SC_28300 RG_2005 N_2177135201_0bfd5b9 1.00000000 75.207 100.000 8.3163 1
SC_28301 RG_2005 N_2177135201_0bfd5b9 1.00000000 60.331 100.000 6.8563 1
SC_28302 RG_2005 N_2177135201_0bfd5b9 1.00000000 93.388 100.000 18.7896 1
SC_28303 RG_2005 N_2177138401_f68c5b7 1.00000000 80.992 100.000 24.7820 1
SC_28304 RG_2005 N_2177138501_c53b274 1.00000000 88.430 100.000 8.6036 1
SC_28305 RG_2005 N_2177139602_0d3d523 1.00000000 66.942 100.000 11.7922 1
SC_28331 RG_2005 N_2176158801_53280ec 1.00000000 15.702 100.000 4.9768 1
SC_28526 RG_2005 N_2177083903_9107fc5 1.00000000 74.545 100.000 6.4901 1
SC_28527 RG_2005 N_2177084902_d94269e 1.00000000 91.818 100.000 5.1705 1
SC_28528 RG_2005 N_2177095001_58bb755 1.00000000 83.636 100.000 3.9605 1
SC_28529 RG_2005 N_2177095004_1958e3d 1.00000000 54.545 100.000 6.4010 1
SC_28530 RG_2005 N_2177095101_210555a 1.00000000 90.909 100.000 10.5954 1
SC_28531 RG_2005 N_2177096103_83909cb 1.00000000 47.273 100.000 6.3161 1
SC_28532 RG_2005 N_2177097201_b110c05 1.00000000 23.636 100.000 5.9430 1
SC_28533 RG_2005 N_2177097302_c171dd5 1.00000000 80.000 100.000 5.6730 1
SC_28534 RG_2005 N_2177097603_305a338 1.00000000 70.909 100.000 9.0976 1
SC_28535 RG_2005 N_2177097703_b9bd884 1.00000000 51.818 100.000 8.2850 1
SC_28536 RG_2005 N_2177097701_ca3e241 1.00000000 20.000 100.000 8.0147 1
SC_28537 RG_2005 N_2177096905_e72db6e 1.00000000 61.818 100.000 6.4784 1
SC_28538 RG_2005 N_2177096901_78625d1 1.00000000 80.909 100.000 3.5915 1
SC_28539 RG_2005 N_2177105015_e7d2107 1.00000000 85.455 100.000 5.2787 1
SC_28540 RG_2005 N_2177105102_afe4d00 1.00000000 54.545 100.000 4.8506 1
SC_28541 RG_2005 N_2177105202_fc5799a 1.00000000 47.273 100.000 3.2273 1
SC_28542 RG_2005 N_2177105315_e969ec5 1.00000000 61.818 100.000 2.8424 1
SC_28543 RG_2005 N_2177105404_175ba62 1.00000000 26.364 100.000 2.9660 1
SC_28544 RG_2005 N_2177105501_143e2ba 1.00000000 100.000 100.000 16.9982 1
SC_28545 RG_2005 N_2177105501_143e2ba 1.00000000 100.000 100.000 17.2616 1
SC_28546 RG_2005 N_2177105501_143e2ba 1.00000000 86.364 100.000 13.6130 1
SC_28547 RG_2005 N_2177105501_143e2ba 1.00000000 56.364 100.000 9.9830 1
SC_28548 RG_2005 N_2177116202_c504476 1.00000000 97.273 100.000 11.6436 1
SC_28549 RG_2005 N_2177116202_c504476 1.00000000 73.636 100.000 12.6513 1
SC_28550 RG_2005 N_2177116201_7590b69 1.00000000 97.273 100.000 22.4087 1
SC_28551 RG_2005 N_2177116201_7590b69 1.00000000 86.364 100.000 22.9852 1
SC_28552 RG_2005 N_2177116201_7590b69 1.00000000 54.545 100.000 6.6021 1
SC_28553 RG_2005 N_2177114503_b318550 1.00000000 30.000 100.000 8.2502 1
SC_28554 RG_2005 N_2177115502_ba98043 1.00000000 63.636 100.000 3.9377 1
SC_28555 RG_2005 N_2177115501_40f3c5e 1.00000000 45.455 100.000 6.9549 1
SC_28556 RG_2005 N_2177116701_85db9bd 1.00000000 55.455 100.000 10.1721 1
SC_28557 RG_2005 N_2177113804_f43206c 1.00000000 45.455 100.000 9.2201 1
SC_28558 RG_2005 N_2177113804_f43206c 1.00000000 65.455 100.000 4.5573 1
SC_28559 RG_2005 N_2177113804_f43206c 1.00000000 100.000 100.000 3.4731 1
SC_28560 RG_2005 N_2177113803_64e8895 1.00000000 100.000 100.000 1.8648 1
SC_28561 RG_2005 N_2177113803_64e8895 1.00000000 100.000 100.000 3.8895 1
SC_28562 RG_2005 N_2177129101_3fcd860 1.00000000 100.000 100.000 4.1373 1
SC_28563 RG_2005 N_2177123803_283168f 1.00000000 98.182 100.000 7.7334 1
SC_28564 RG_2005 N_2177123803_283168f 1.00000000 87.273 100.000 5.3177 1
SC_28565 RG_2005 N_2177123803_283168f 1.00000000 86.364 100.000 5.6457 1
SC_28566 RG_2005 N_2177124904_ede9354 1.00000000 63.636 100.000 7.4260 1
SC_28567 RG_2005 N_2177124904_ede9354 1.00000000 90.000 100.000 3.9257 1
SC_28568 RG_2005 N_2177124904_ede9354 1.00000000 44.545 100.000 8.4295 1
SC_28569 RG_2005 N_2177135001_967e84c 1.00000000 56.000 100.000 20.8699 1
SC_28570 RG_2005 N_2177135102_55d6568 1.00000000 90.000 100.000 25.1122 1
SC_28571 RG_2005 N_2177135201_0bfd5b9 1.00000000 81.818 100.000 22.1246 1
SC_28572 RG_2005 N_2177135201_0bfd5b9 1.00000000 53.636 100.000 25.2231 1
SC_28573 RG_2005 N_2177136205_14035fa 1.00000000 88.182 100.000 10.2224 1
SC_28574 RG_2005 N_2177138401_f68c5b7 1.00000000 70.000 100.000 15.4024 1
SC_28575 RG_2005 N_2177138401_f68c5b7 1.00000000 38.182 100.000 19.5006 1
SC_28576 RG_2005 N_2177138502_97fbf3e 1.00000000 42.727 100.000 4.2963 1
SC_28577 RG_2005 N_2177139602_0d3d523 1.00000000 40.909 100.000 6.6988 1
SC_28578 RG_2005 N_2177139702_b98b552 1.00000000 46.364 100.000 7.3248 1
SC_28584 RG_2005 N_2178142204_b90abad 1.00000000 40.909 100.000 8.7617 1
SC_28602 RG_2005 N_2176158801_53280ec 1.00000000 50.000 100.000 5.6317 1
SC_28603 RG_2005 N_2176158801_53280ec 1.00000000 61.818 100.000 7.2933 1
SC_28801 RG_2005 N_2177095004_1958e3d 1.00000000 87.603 100.000 4.8378 1
SC_28802 RG_2005 N_2177095006_5ded0ad 1.00000000 85.950 100.000 2.4576 1
SC_28803 RG_2005 N_2177095101_210555a 1.00000000 100.000 100.000 6.2415 1
SC_28804 RG_2005 N_2177096102_cd846ff 1.00000000 41.322 100.000 11.3917 1
SC_28805 RG_2005 N_2177096201_1916d31 1.00000000 3.306 100.000 8.2477 1
SC_28806 RG_2005 N_2177097301_fc9dea7 1.00000000 39.669 100.000 5.3787 1
SC_28807 RG_2005 N_2177097304_ad7b397 1.00000000 27.273 100.000 4.8004 1
SC_28808 RG_2005 N_2177097605_441c25a 1.00000000 28.099 100.000 9.8028 1
SC_28809 RG_2005 N_2177097601_45f4958 1.00000000 61.983 100.000 8.9351 1
SC_28810 RG_2005 N_2177097701_ca3e241 1.00000000 93.388 100.000 7.2420 1
SC_28811 RG_2005 N_2177096804_fcb6408 1.00000000 77.686 100.000 7.6823 1
SC_28812 RG_2005 N_2177096904_682a880 1.00000000 90.909 100.000 5.0984 1
SC_28813 RG_2005 N_2177095902_8420168 1.00000000 66.942 100.000 3.5244 1
SC_28814 RG_2005 N_2177105103_cc0cbb9 1.00000000 16.529 100.000 2.1928 1
SC_28815 RG_2005 N_2177105202_fc5799a 1.00000000 1.653 100.000 2.6669 1
SC_28816 RG_2005 N_2177106401_06288cb 1.00000000 52.066 100.000 3.0812 1
SC_28817 RG_2005 N_2177106403_b914a8f 1.00000000 85.950 100.000 2.6760 1
SC_28818 RG_2005 N_2177107401_0dc040f 1.00000000 100.000 100.000 21.0323 1
SC_28819 RG_2005 N_2177105501_143e2ba 1.00000000 100.000 100.000 17.6502 1
SC_28820 RG_2005 N_2177108501_484de01 1.00000000 100.000 100.000 14.0286 1
SC_28821 RG_2005 N_2177108503_b6dfe75 1.00000000 84.298 100.000 10.2927 1
SC_28822 RG_2005 N_2177117101_aa1ba18 1.00000000 99.174 100.000 3.3714 1
SC_28823 RG_2005 N_2177117101_aa1ba18 1.00000000 95.041 100.000 6.9699 1
SC_28824 RG_2005 N_2177116202_c504476 1.00000000 100.000 100.000 27.0083 1
SC_28825 RG_2005 N_2177116201_7590b69 1.00000000 67.769 100.000 10.9945 1
SC_28826 RG_2005 N_2177116201_7590b69 1.00000000 38.017 100.000 5.0974 1
SC_28827 RG_2005 N_2177115502_ba98043 1.00000000 55.372 100.000 8.1539 1
SC_28828 RG_2005 N_2177116503_92549b7 1.00000000 67.769 100.000 5.0886 1
SC_28829 RG_2005 N_2177116502_cbeb2e5 1.00000000 77.686 100.000 4.2995 1
SC_28830 RG_2005 N_2177116701_85db9bd 1.00000000 78.512 100.000 8.8370 1
SC_28831 RG_2005 N_2177117801_c68e3f9 1.00000000 93.388 100.000 7.9543 1
SC_28832 RG_2005 N_2177117801_c68e3f9 1.00000000 80.165 100.000 4.7170 1
SC_28833 RG_2005 N_2177117801_c68e3f9 1.00000000 96.694 100.000 2.3883 1
SC_28834 RG_2005 N_2177129101_3fcd860 1.00000000 100.000 100.000 3.8484 1
SC_28835 RG_2005 N_2177129101_3fcd860 1.00000000 95.868 100.000 7.3634 1
SC_28836 RG_2005 N_2177129101_3fcd860 1.00000000 100.000 100.000 7.9174 1
SC_28837 RG_2005 N_2177129101_3fcd860 1.00000000 92.562 100.000 5.8552 1
SC_28838 RG_2005 N_2177124904_ede9354 1.00000000 92.562 100.000 2.8399 1
SC_28839 RG_2005 N_2177124904_ede9354 1.00000000 98.347 100.000 10.5117 1
SC_28840 RG_2005 N_2177124904_ede9354 1.00000000 95.041 100.000 7.9942 1
SC_28841 RG_2005 N_2177124904_ede9354 1.00000000 95.041 100.000 3.8772 1
SC_28842 RG_2005 N_2177124904_ede9354 1.00000000 83.471 100.000 4.6490 1
SC_28843 RG_2005 N_2177135101_8cb6217 1.00000000 92.727 100.000 25.3189 1
SC_28844 RG_2005 N_2177136202_59e8418 1.00000000 96.694 100.000 18.2182 1
SC_28845 RG_2005 N_2177136205_14035fa 1.00000000 81.818 100.000 23.7962 1
SC_28846 RG_2005 N_2177136207_6f0ed07 1.00000000 40.496 100.000 17.0820 1
SC_28847 RG_2005 N_2177138401_f68c5b7 1.00000000 25.620 100.000 14.4865 1
SC_28848 RG_2005 N_2177138401_f68c5b7 1.00000000 84.298 100.000 29.1659 1
SC_28849 RG_2005 N_2177138501_c53b274 1.00000000 92.562 100.000 28.8945 1
SC_28850 RG_2005 N_2177139602_0d3d523 1.00000000 90.083 100.000 10.0022 1
SC_28851 RG_2005 N_2177139602_0d3d523 1.00000000 5.785 100.000 6.3432 1
SC_28852 RG_2005 N_2177139702_b98b552 1.00000000 11.570 100.000 3.6279 1
SC_28853 RG_2005 N_2177139702_b98b552 1.00000000 14.050 100.000 5.5097 1
SC_28857 RG_2005 N_2178142204_b90abad 1.00000000 72.727 100.000 16.6065 1
SC_28858 RG_2005 N_2178143201_1ba1200 1.00000000 88.430 100.000 7.6092 1
SC_28859 RG_2005 N_2178143303_6328d44 1.00000000 40.496 100.000 12.7444 1
SC_28863 RG_2005 N_2176147804_66a4857 1.00000000 45.455 100.000 22.2415 1
SC_28864 RG_2005 N_2176147804_66a4857 1.00000000 55.372 100.000 18.6416 1
SC_28865 RG_2005 N_2176157101_e04a53b 1.00000000 75.207 100.000 31.3348 1
SC_28866 RG_2005 N_2176157501_1296131 1.00000000 50.413 100.000 10.6035 1
SC_28867 RG_2005 N_2176158701_0fa4e6c 1.00000000 57.025 100.000 11.0500 1
SC_28875 RG_2005 N_2176158801_53280ec 1.00000000 1.653 100.000 5.4265 1
SC_28876 RG_2005 N_2176158801_53280ec 1.00000000 68.595 100.000 6.6026 1
SC_28877 RG_2005 N_2176158801_53280ec 1.00000000 35.537 100.000 4.6734 1
SC_29079 RG_2005 N_2177096102_cd846ff 1.00000000 85.124 100.000 3.1227 1
SC_29080 RG_2005 N_2177096104_f722e4d 1.00000000 95.041 100.000 10.8303 1
SC_29081 RG_2005 N_2177097201_b110c05 1.00000000 57.851 100.000 13.5346 1
SC_29082 RG_2005 N_2177097303_761a287 1.00000000 35.537 100.000 9.5424 1
SC_29083 RG_2005 N_2177097402_0bbb9be 1.00000000 20.661 100.000 8.1532 1
SC_29084 RG_2005 N_2177098502_71305d2 1.00000000 46.281 100.000 6.8432 1
SC_29085 RG_2005 N_2177097605_441c25a 1.00000000 46.281 100.000 7.3109 1
SC_29086 RG_2005 N_2177097703_b9bd884 1.00000000 80.165 100.000 13.4910 1
SC_29087 RG_2005 N_2177097802_b2b7aad 1.00000000 68.595 100.000 6.0463 1
SC_29088 RG_2005 N_2177097801_4a9094c 1.00000000 78.512 100.000 5.2499 1
SC_29089 RG_2005 N_2177096904_682a880 1.00000000 62.810 100.000 3.8377 1
SC_29090 RG_2005 N_2177105103_cc0cbb9 1.00000000 45.455 100.000 3.0361 1
SC_29091 RG_2005 N_2177105203_6961cff 1.00000000 31.405 100.000 3.5002 1
SC_29092 RG_2005 N_2177106403_b914a8f 1.00000000 17.355 100.000 2.5095 1
SC_29093 RG_2005 N_2177107401_0dc040f 1.00000000 91.736 100.000 3.3621 1
SC_29094 RG_2005 N_2177107502_85491ab 1.00000000 93.388 100.000 34.9832 1
SC_29095 RG_2005 N_2177108502_cf265b6 1.00000000 100.000 100.000 21.4958 1
SC_29096 RG_2005 N_2177108601_91bc79c 1.00000000 100.000 100.000 15.7985 1
SC_29097 RG_2005 N_2177109801_9cfdb77 1.00000000 90.083 100.000 18.2671 1
SC_29098 RG_2005 N_2177109902_263ab19 1.00000000 64.463 100.000 7.2370 1
SC_29099 RG_2005 N_2177118101_8255d88 1.00000000 97.521 100.000 8.6359 1
SC_29100 RG_2005 N_2177117101_aa1ba18 1.00000000 95.041 100.000 14.6368 1
SC_29101 RG_2005 N_2177117101_aa1ba18 1.00000000 63.636 100.000 9.2657 1
SC_29102 RG_2005 N_2177116202_c504476 1.00000000 52.893 100.000 5.7530 1
SC_29103 RG_2005 N_2177116503_92549b7 1.00000000 79.339 100.000 7.7488 1
SC_29104 RG_2005 N_2177116503_92549b7 1.00000000 81.818 100.000 8.7422 1
SC_29105 RG_2005 N_2177116701_85db9bd 1.00000000 91.736 100.000 4.4348 1
SC_29106 RG_2005 N_2177117803_5761735 1.00000000 84.298 100.000 4.3983 1
SC_29107 RG_2005 N_2177117804_2a0382c 1.00000000 95.041 100.000 4.5416 1
SC_29108 RG_2005 N_2177117804_2a0382c 1.00000000 95.868 100.000 3.6075 1
SC_29109 RG_2005 N_2177117804_2a0382c 1.00000000 95.041 100.000 6.5527 1
SC_29110 RG_2005 N_2177129101_3fcd860 1.00000000 82.645 100.000 14.3746 1
SC_29111 RG_2005 N_2177129101_3fcd860 1.00000000 100.000 100.000 15.3312 1
SC_29112 RG_2005 N_2177129101_3fcd860 1.00000000 100.000 100.000 10.1816 1
SC_29113 RG_2005 N_2177129101_3fcd860 1.00000000 87.603 100.000 13.9228 1
SC_29114 RG_2005 N_2177129101_3fcd860 1.00000000 82.645 100.000 6.7004 1
SC_29115 RG_2005 N_2177124904_ede9354 1.00000000 83.471 100.000 13.3370 1
SC_29116 RG_2005 N_2177124904_ede9354 1.00000000 97.521 100.000 18.1830 1
SC_29117 RG_2005 N_2177124904_ede9354 1.00000000 88.430 100.000 10.1418 1
SC_29118 RG_2005 N_2177135101_8cb6217 1.00000000 100.000 100.000 1.7777 1
SC_29119 RG_2005 N_2177137204_f320986 1.00000000 99.091 100.000 2.9434 1
SC_29120 RG_2005 N_2177137205_e96fb60 1.00000000 99.174 100.000 2.8215 1
SC_29121 RG_2005 N_2177137205_e96fb60 1.00000000 94.215 100.000 3.9351 1
SC_29122 RG_2005 N_2177137301_c73bbf2 1.00000000 98.347 100.000 3.1592 1
SC_29123 RG_2005 N_2177138401_f68c5b7 1.00000000 86.777 100.000 5.4981 1
SC_29124 RG_2005 N_2177138401_f68c5b7 1.00000000 83.471 100.000 28.8283 1
SC_29125 RG_2005 N_2177138502_97fbf3e 1.00000000 87.603 100.000 22.0591 1
SC_29126 RG_2005 N_2177139602_0d3d523 1.00000000 95.868 100.000 13.7565 1
SC_29127 RG_2005 N_2177139702_b98b552 1.00000000 89.256 100.000 14.2690 1
SC_29128 RG_2005 N_2177139702_b98b552 1.00000000 52.893 100.000 10.1519 1
SC_29129 RG_2005 N_2177139704_9d1567b 1.00000000 47.934 100.000 7.1321 1
SC_29130 RG_2005 N_2177139704_9d1567b 1.00000000 25.620 100.000 11.8844 1
SC_29131 RG_2005 N_2178142101_f782355 1.00000000 24.793 100.000 11.2072 1
SC_29132 RG_2005 N_2178142102_53b816a 1.00000000 38.017 100.000 6.4572 1
SC_29133 RG_2005 N_2178142204_b90abad 1.00000000 58.678 100.000 19.6665 1
SC_29134 RG_2005 N_2178143201_1ba1200 1.00000000 90.909 100.000 11.8488 1
SC_29135 RG_2005 N_2178143303_6328d44 1.00000000 57.851 100.000 12.0490 1
SC_29136 RG_2005 N_2178143402_228b9aa 1.00000000 27.273 100.000 22.6536 1
SC_29137 RG_2005 N_2178143402_228b9aa 1.00000000 42.149 100.000 22.7060 1
SC_29138 RG_2005 N_2178143402_228b9aa 1.00000000 66.116 100.000 36.4586 1
SC_29139 RG_2005 N_2178143402_228b9aa 1.00000000 88.430 100.000 21.5106 1
SC_29140 RG_2005 N_2178143402_228b9aa 1.00000000 90.909 100.000 12.3337 1
SC_29141 RG_2005 N_2178143402_228b9aa 1.00000000 59.504 100.000 38.5986 1
SC_29142 RG_2005 N_2176157501_1296131 1.00000000 85.950 100.000 25.3424 1
SC_29143 RG_2005 N_2176158701_0fa4e6c 1.00000000 89.256 100.000 1.8557 1
SC_29144 RG_2005 N_2176158701_0fa4e6c 1.00000000 60.000 100.000 5.1433 1
SC_29148 RG_2005 N_2176158801_53280ec 1.00000000 38.017 100.000 24.0571 1
SC_29149 RG_2005 N_2176158801_53280ec 1.00000000 60.331 100.000 3.6091 1
SC_29150 RG_2005 N_2176158801_53280ec 1.00000000 63.636 100.000 1.8493 1
SC_29151 RG_2005 N_2176158801_53280ec 1.00000000 66.116 100.000 3.2924 1
SC_29152 RG_2005 N_2176158801_53280ec 1.00000000 32.231 100.000 8.9409 1
SC_29357 RG_2005 N_2177096201_1916d31 1.00000000 78.512 100.000 12.6204 1
SC_29358 RG_2005 N_2177097301_fc9dea7 1.00000000 76.860 100.000 16.6403 1
SC_29359 RG_2005 N_2177097304_ad7b397 1.00000000 81.818 100.000 9.1992 1
SC_29360 RG_2005 N_2177098406_4d04a70 1.00000000 57.025 100.000 13.7852 1
SC_29361 RG_2005 N_2177098503_b6210ba 1.00000000 42.149 100.000 17.8427 1
SC_29362 RG_2005 N_2177098602_8cf800b 1.00000000 99.174 100.000 7.2316 1
SC_29363 RG_2005 N_2177098603_55f7b34 1.00000000 85.950 100.000 4.0019 1
SC_29364 RG_2005 N_2177098802_2a31c7c 1.00000000 53.719 100.000 2.6438 1
SC_29365 RG_2005 N_2177098902_7586844 1.00000000 18.182 100.000 4.9915 1
SC_29366 RG_2005 N_2177098902_7586844 1.00000000 0.000 100.000 4.4533 1
SC_29367 RG_2005 N_2177098902_7586844 1.00000000 23.967 100.000 1.8348 1
SC_29368 RG_2005 N_2177106404_6a5fd8d 1.00000000 24.793 100.000 4.0328 1
SC_29369 RG_2005 N_2177107501_084c7eb 1.00000000 42.149 100.000 4.1753 1
SC_29370 RG_2005 N_2177107503_46cc85a 1.00000000 90.083 100.000 5.0156 1
SC_29371 RG_2005 N_2177108502_cf265b6 1.00000000 98.347 100.000 12.8449 1
SC_29372 RG_2005 N_2177108601_91bc79c 1.00000000 100.000 100.000 38.0256 1
SC_29373 RG_2005 N_2177109601_795ec84 1.00000000 95.868 100.000 30.3230 1
SC_29374 RG_2005 N_2177109802_043ace6 1.00000000 100.000 100.000 24.8526 1
SC_29375 RG_2005 N_2177109902_263ab19 1.00000000 91.736 100.000 7.1736 1
SC_29376 RG_2005 N_2177118001_db3dbd7 1.00000000 78.512 100.000 10.5587 1
SC_29377 RG_2005 N_2177118101_8255d88 1.00000000 60.331 100.000 17.6342 1
SC_29378 RG_2005 N_2177118101_8255d88 1.00000000 66.116 100.000 9.5369 1
SC_29379 RG_2005 N_2178110301_c1d0398 1.00000000 90.083 100.000 8.8236 1
SC_29380 RG_2005 N_2178110303_ab41279 1.00000000 97.521 100.000 9.2965 1
SC_29381 RG_2005 N_2178110403_2127a2a 1.00000000 95.868 100.000 11.2748 1
SC_29382 RG_2005 N_2177117803_5761735 1.00000000 98.347 100.000 8.2129 1
SC_29383 RG_2005 N_2177118801_0c938e6 1.00000000 99.174 100.000 3.3323 1
SC_29384 RG_2005 N_2177118801_0c938e6 1.00000000 100.000 100.000 10.1096 1
SC_29385 RG_2005 N_2177118801_0c938e6 1.00000000 93.388 100.000 7.2668 1
SC_29386 RG_2005 N_2177129101_3fcd860 1.00000000 98.347 100.000 7.1859 1
SC_29387 RG_2005 N_2177129101_3fcd860 1.00000000 100.000 100.000 7.6882 1
SC_29388 RG_2005 N_2177129101_3fcd860 1.00000000 99.174 100.000 12.3141 1
SC_29389 RG_2005 N_2177129101_3fcd860 1.00000000 100.000 100.000 13.7819 1
SC_29390 RG_2005 N_2177129101_3fcd860 1.00000000 100.000 100.000 4.7835 1
SC_29391 RG_2005 N_2177129101_3fcd860 1.00000000 100.000 100.000 5.2128 1
SC_29392 RG_2005 N_2177124904_ede9354 1.00000000 91.736 100.000 11.0820 1
SC_29393 RG_2005 N_2177124904_ede9354 1.00000000 97.521 100.000 15.2414 1
SC_29394 RG_2005 N_2177124904_ede9354 1.00000000 100.000 100.000 7.5665 1
SC_29395 RG_2005 N_2177137207_9d0d3d7 1.00000000 99.174 100.000 6.4027 1
SC_29396 RG_2005 N_2177137207_9d0d3d7 1.00000000 100.000 100.000 6.8450 1
SC_29397 RG_2005 N_2177138202_c903e2e 1.00000000 100.000 100.000 3.4245 1
SC_29398 RG_2005 N_2177138202_c903e2e 1.00000000 100.000 100.000 4.6705 1
SC_29399 RG_2005 N_2177138205_aaad3b8 1.00000000 100.000 100.000 3.7119 1
SC_29400 RG_2005 N_2177138401_f68c5b7 1.00000000 93.388 100.000 11.2210 1
SC_29401 RG_2005 N_2177138501_c53b274 1.00000000 94.215 100.000 13.4798 1
SC_29402 RG_2005 N_2177138601_6c5a11a 1.00000000 90.909 100.000 12.7840 1
SC_29403 RG_2005 N_2177139701_5da39da 1.00000000 86.777 100.000 13.7139 1
SC_29404 RG_2005 N_2177139703_68fe056 1.00000000 58.678 100.000 8.0988 1
SC_29405 RG_2005 N_2177139704_9d1567b 1.00000000 71.901 100.000 15.9866 1
SC_29406 RG_2005 N_2178130803_5c5926a 1.00000000 66.116 100.000 7.5902 1
SC_29407 RG_2005 N_2178131801_ea25dbc 1.00000000 69.421 100.000 8.0982 1
SC_29408 RG_2005 N_2178142101_f782355 1.00000000 100.000 100.000 4.7228 1
SC_29409 RG_2005 N_2178142203_3c3a61e 1.00000000 100.000 100.000 4.9288 1
SC_29410 RG_2005 N_2178142204_b90abad 1.00000000 96.694 100.000 19.4824 1
SC_29411 RG_2005 N_2178143303_6328d44 1.00000000 58.678 100.000 11.3589 1
SC_29412 RG_2005 N_2178143401_141c24f 1.00000000 71.901 100.000 8.3203 1
SC_29413 RG_2005 N_2178143402_228b9aa 1.00000000 42.975 100.000 8.9994 1
SC_29414 RG_2005 N_2178143402_228b9aa 1.00000000 57.851 100.000 9.4518 1
SC_29415 RG_2005 N_2178143402_228b9aa 1.00000000 28.926 100.000 13.7946 1
SC_29416 RG_2005 N_2178143402_228b9aa 1.00000000 32.231 100.000 20.3091 1
SC_29417 RG_2005 N_2178143402_228b9aa 1.00000000 45.455 100.000 17.3927 1
SC_29418 RG_2005 N_2178143402_228b9aa 1.00000000 67.769 100.000 20.1388 1
SC_29419 RG_2005 N_2178143402_228b9aa 1.00000000 78.512 100.000 22.7558 1
SC_29420 RG_2005 N_2176158701_0fa4e6c 1.00000000 65.289 100.000 2.6989 1
SC_29421 RG_2005 N_2176158701_0fa4e6c 1.00000000 76.364 100.000 3.5694 1
SC_29423 RG_2005 N_2176158801_53280ec 1.00000000 75.207 100.000 25.5074 1
SC_29424 RG_2005 N_2176158801_53280ec 1.00000000 53.719 100.000 13.6778 1
SC_29425 RG_2005 N_2176158801_53280ec 1.00000000 97.521 100.000 15.6431 1
SC_29426 RG_2005 N_2176158801_53280ec 1.00000000 90.909 100.000 4.2185 1
SC_29427 RG_2005 N_2176158801_53280ec 1.00000000 66.116 100.000 2.1179 1
SC_29428 RG_2005 N_2176158801_53280ec 1.00000000 67.769 100.000 5.0231 1
SC_29638 RG_2005 N_2177099404_5c3783b 1.00000000 71.074 100.000 15.2792 1
SC_29639 RG_2005 N_2177099403_3a480cb 1.00000000 46.281 100.000 12.7905 1
SC_29640 RG_2005 N_2177099402_40bad5a 1.00000000 78.512 100.000 11.7871 1
SC_29641 RG_2005 N_2177099602_ee8845d 1.00000000 57.025 100.000 12.5627 1
SC_29642 RG_2005 N_2177099602_ee8845d 1.00000000 95.041 100.000 2.8077 1
SC_29643 RG_2005 N_2177098803_506dd33 1.00000000 94.215 100.000 4.4308 1
SC_29644 RG_2005 N_2177098902_7586844 1.00000000 47.934 100.000 3.0066 1
SC_29645 RG_2005 N_2177098902_7586844 1.00000000 22.314 100.000 3.2685 1
SC_29646 RG_2005 N_2177098902_7586844 1.00000000 18.182 100.000 3.8836 1
SC_29647 RG_2005 N_2177107501_084c7eb 1.00000000 40.496 100.000 2.5362 1
SC_29648 RG_2005 N_2177107503_46cc85a 1.00000000 77.686 100.000 8.2542 1
SC_29649 RG_2005 N_2177108502_cf265b6 1.00000000 100.000 100.000 3.4431 1
SC_29650 RG_2005 N_2177108602_8f8b797 1.00000000 80.992 100.000 5.7061 1
SC_29651 RG_2005 N_2177109602_acf7944 1.00000000 35.455 100.000 11.1128 1
SC_29652 RG_2005 N_2177109701_6bc0e31 1.00000000 95.868 100.000 33.0272 1
SC_29653 RG_2005 N_2177109803_35414f8 1.00000000 99.174 100.000 26.6438 1
SC_29654 RG_2005 N_2177109902_263ab19 1.00000000 71.074 100.000 5.9725 1
SC_29655 RG_2005 N_2177119002_f01a872 1.00000000 61.983 100.000 4.6753 1
SC_29656 RG_2005 N_2177119001_2c6d53a 1.00000000 37.190 100.000 8.7360 1
SC_29657 RG_2005 N_2178110203_62bf6c1 1.00000000 32.231 100.000 8.4498 1
SC_29658 RG_2005 N_2178110301_c1d0398 1.00000000 92.562 100.000 6.0089 1
SC_29659 RG_2005 N_2178110401_ea8cf66 1.00000000 86.777 100.000 4.0332 1
SC_29660 RG_2005 N_2178110501_018f3b7 1.00000000 91.736 100.000 9.9053 1
SC_29661 RG_2005 N_2178110501_018f3b7 1.00000000 93.388 100.000 12.0796 1
SC_29662 RG_2005 N_2177119801_3819d37 1.00000000 100.000 100.000 8.0147 1
SC_29663 RG_2005 N_2177119801_3819d37 1.00000000 99.174 100.000 14.7993 1
SC_29664 RG_2005 N_2178110901_a5f4a78 1.00000000 100.000 100.000 5.5963 1
SC_29665 RG_2005 N_2177129001_7bf2eb6 1.00000000 100.000 100.000 4.1169 1
SC_29666 RG_2005 N_2177129101_3fcd860 1.00000000 100.000 100.000 5.3698 1
SC_29667 RG_2005 N_2177129101_3fcd860 1.00000000 100.000 100.000 5.2542 1
SC_29668 RG_2005 N_2177129101_3fcd860 1.00000000 100.000 100.000 8.0691 1
SC_29669 RG_2005 N_2177129101_3fcd860 1.00000000 100.000 100.000 11.9461 1
SC_29670 RG_2005 N_2177129101_3fcd860 1.00000000 100.000 100.000 6.2409 1
SC_29671 RG_2005 N_2178123902_de7f838 1.00000000 94.215 100.000 3.8629 1
SC_29672 RG_2005 N_2178133003_b07e8ff 1.00000000 95.868 100.000 2.3244 1
SC_29673 RG_2005 N_2178133002_91fc2fa 1.00000000 91.736 100.000 3.6340 1
SC_29674 RG_2005 N_2177138202_c903e2e 1.00000000 95.868 100.000 7.8405 1
SC_29675 RG_2005 N_2177138202_c903e2e 1.00000000 100.000 100.000 6.2290 1
SC_29676 RG_2005 N_2177139202_0983e53 1.00000000 100.000 100.000 1.8960 1
SC_29677 RG_2005 N_2177139203_48f7b65 1.00000000 97.521 100.000 2.6381 1
SC_29678 RG_2005 N_2177139305_3901c37 1.00000000 89.256 100.000 2.8546 1
SC_29679 RG_2005 N_2177139401_0cf6f45 1.00000000 91.736 100.000 7.1370 1
SC_29680 RG_2005 N_2177139502_d65f90c 1.00000000 90.909 100.000 7.4903 1
SC_29681 RG_2005 N_2177139511_53167c7 1.00000000 96.694 100.000 1.6406 1
SC_29682 RG_2005 N_2177139705_6a8cd90 1.00000000 100.000 100.000 3.4356 1
SC_29683 RG_2005 N_2178130705_7a8a6da 1.00000000 93.388 100.000 3.8610 1
SC_29684 RG_2005 N_2178130802_4228985 1.00000000 73.554 100.000 11.2657 1
SC_29685 RG_2005 N_2178131801_ea25dbc 1.00000000 63.636 100.000 18.5315 1
SC_29686 RG_2005 N_2178142101_f782355 1.00000000 72.727 100.000 35.5287 1
SC_29687 RG_2005 N_2178142102_53b816a 1.00000000 90.909 100.000 19.7998 1
SC_29688 RG_2005 N_2178142203_3c3a61e 1.00000000 63.636 100.000 15.3102 1
SC_29689 RG_2005 N_2178143201_1ba1200 1.00000000 79.339 100.000 18.8650 1
SC_29690 RG_2005 N_2178143303_6328d44 1.00000000 42.975 100.000 10.9230 1
SC_29691 RG_2005 N_2178143402_228b9aa 1.00000000 57.025 100.000 8.6098 1
SC_29692 RG_2005 N_2178143402_228b9aa 1.00000000 80.992 100.000 9.1852 1
SC_29693 RG_2005 N_2178143402_228b9aa 1.00000000 80.165 100.000 8.3277 1
SC_29694 RG_2005 N_2178143402_228b9aa 1.00000000 61.983 100.000 8.2532 1
SC_29695 RG_2005 N_2178143402_228b9aa 1.00000000 63.636 100.000 15.6424 1
SC_29696 RG_2005 N_2178143402_228b9aa 1.00000000 39.669 100.000 22.5598 1
SC_29697 RG_2005 N_2178143402_228b9aa 1.00000000 53.719 100.000 17.0672 1
SC_29698 RG_2005 N_2178143402_228b9aa 1.00000000 77.686 100.000 10.7696 1
SC_29699 RG_2005 N_2178143402_228b9aa 1.00000000 72.727 100.000 2.6702 1
SC_29700 RG_2005 N_2176158701_0fa4e6c 1.00000000 91.818 100.000 3.0230 1
SC_29701 RG_2005 N_2176158801_53280ec 1.00000000 79.339 100.000 16.8048 1
SC_29702 RG_2005 N_2176158801_53280ec 1.00000000 59.504 100.000 14.4748 1
SC_29703 RG_2005 N_2176158801_53280ec 1.00000000 52.893 100.000 4.9951 1
SC_29704 RG_2005 N_2176158801_53280ec 1.00000000 76.860 100.000 13.2638 1
SC_29705 RG_2005 N_2176158801_53280ec 1.00000000 71.074 100.000 16.6764 1
SC_29706 RG_2005 N_2176158801_53280ec 1.00000000 48.760 100.000 10.0096 1
SC_29707 RG_2005 N_2176158801_53280ec 1.00000000 52.893 100.000 6.3409 1
SC_29917 RG_2005 N_2178090402_d33e63d 1.00000000 80.165 100.000 8.4608 1
SC_29918 RG_2005 N_2178091403_9e5afe8 1.00000000 29.752 100.000 10.5055 1
SC_29919 RG_2005 N_2178090602_7bebcd1 1.00000000 52.066 100.000 12.8275 1
SC_29920 RG_2005 N_2178090603_8f6f659 1.00000000 97.521 100.000 5.2629 1
SC_29921 RG_2005 N_2178090603_8f6f659 1.00000000 98.347 100.000 1.7004 1
SC_29922 RG_2005 N_2177098902_7586844 1.00000000 100.000 100.000 2.3202 1
SC_29923 RG_2005 N_2177098902_7586844 1.00000000 77.686 100.000 10.6322 1
SC_29924 RG_2005 N_2177098902_7586844 1.00000000 28.099 100.000 6.4039 1
SC_29925 RG_2005 N_2177098902_7586844 1.00000000 42.975 100.000 3.6092 1
SC_29926 RG_2005 N_2177108503_b6dfe75 1.00000000 47.107 100.000 4.8679 1
SC_29927 RG_2005 N_2177108602_8f8b797 1.00000000 96.694 100.000 5.9608 1
SC_29928 RG_2005 N_2177109602_acf7944 1.00000000 89.256 100.000 5.0681 1
SC_29929 RG_2005 N_2178100701_3294ddd 1.00000000 70.000 100.000 4.7486 1
SC_29930 RG_2005 N_2178100705_c02407d 1.00000000 73.554 100.000 7.2349 1
SC_29931 RG_2005 N_2178100804_f3b36e8 1.00000000 9.091 100.000 8.5713 1
SC_29932 RG_2005 N_2178100902_8098d2d 1.00000000 33.058 100.000 4.4486 1
SC_29933 RG_2005 N_2178110001_8dd16bb 1.00000000 30.579 100.000 2.4928 1
SC_29934 RG_2005 N_2178110103_1e42068 1.00000000 16.529 100.000 8.0059 1
SC_29935 RG_2005 N_2178110204_54d0a29 1.00000000 41.322 100.000 6.6230 1
SC_29936 RG_2005 N_2178110301_c1d0398 1.00000000 49.587 100.000 5.2825 1
SC_29937 RG_2005 N_2178110402_b671ef1 1.00000000 49.587 100.000 3.6368 1
SC_29938 RG_2005 N_2178110501_018f3b7 1.00000000 83.471 100.000 9.0628 1
SC_29939 RG_2005 N_2178110501_018f3b7 1.00000000 87.603 100.000 15.0927 1
SC_29940 RG_2005 N_2177119801_3819d37 1.00000000 94.215 100.000 10.6966 1
SC_29941 RG_2005 N_2178110801_0007b78 1.00000000 97.521 100.000 10.3941 1
SC_29942 RG_2005 N_2178110903_5d51aef 1.00000000 82.645 100.000 10.2517 1
SC_29943 RG_2005 N_2178110902_f84244f 1.00000000 70.248 100.000 7.7615 1
SC_29944 RG_2005 N_2177129101_3fcd860 1.00000000 91.736 100.000 6.4086 1
SC_29945 RG_2005 N_2177129101_3fcd860 1.00000000 100.000 100.000 4.5181 1
SC_29946 RG_2005 N_2177129101_3fcd860 1.00000000 100.000 100.000 8.5819 1
SC_29947 RG_2005 N_2177129101_3fcd860 1.00000000 100.000 100.000 25.4385 1
SC_29948 RG_2005 N_2177129101_3fcd860 1.00000000 100.000 100.000 32.7780 1
SC_29949 RG_2005 N_2178123903_a1c155d 1.00000000 91.736 100.000 15.2759 1
SC_29950 RG_2005 N_2178123901_11b7871 1.00000000 100.000 100.000 11.6631 1
SC_29951 RG_2005 N_2178133002_91fc2fa 1.00000000 97.521 100.000 3.5471 1
SC_29952 RG_2005 N_2178132001_03e9cfa 1.00000000 91.736 100.000 5.2873 1
SC_29953 RG_2005 N_2178132103_f5eb89f 1.00000000 99.091 100.000 8.8591 1
SC_29954 RG_2005 N_2178132202_72f17b4 1.00000000 100.000 100.000 4.0223 1
SC_29955 RG_2005 N_2178131201_722f590 1.00000000 100.000 100.000 2.6391 1
SC_29956 RG_2005 N_2178131301_a04f5c6 1.00000000 86.777 100.000 6.3592 1
SC_29957 RG_2005 N_2178130404_181d078 1.00000000 92.562 100.000 4.0414 1
SC_29958 RG_2005 N_2178130501_d324718 1.00000000 80.992 100.000 2.0465 1
SC_29959 RG_2005 N_2178130606_3ec74b3 1.00000000 95.041 100.000 2.1057 1
SC_29960 RG_2005 N_2178130706_cfb6f4f 1.00000000 98.347 100.000 2.1922 1
SC_29961 RG_2005 N_2178130802_4228985 1.00000000 97.521 100.000 1.3902 1
SC_29962 RG_2005 N_2178131801_ea25dbc 1.00000000 100.000 100.000 4.9268 1
SC_29963 RG_2005 N_2178131802_8c917be 1.00000000 62.810 100.000 6.8027 1
SC_29964 RG_2005 N_2178142101_f782355 1.00000000 60.331 100.000 7.7488 1
SC_29965 RG_2005 N_2178142102_53b816a 1.00000000 84.298 100.000 12.8912 1
SC_29966 RG_2005 N_2178142204_b90abad 1.00000000 52.893 100.000 18.0633 1
SC_29967 RG_2005 N_2178143302_38c358e 1.00000000 84.298 100.000 20.5844 1
SC_29968 RG_2005 N_2178143401_141c24f 1.00000000 47.934 100.000 6.5981 1
SC_29969 RG_2005 N_2178143402_228b9aa 1.00000000 71.074 100.000 4.2455 1
SC_29970 RG_2005 N_2178143402_228b9aa 1.00000000 51.240 100.000 5.7159 1
SC_29971 RG_2005 N_2178143402_228b9aa 1.00000000 81.818 100.000 8.9732 1
SC_29972 RG_2005 N_2178143402_228b9aa 1.00000000 61.157 100.000 24.5354 1
SC_29973 RG_2005 N_2178143402_228b9aa 1.00000000 67.769 100.000 27.4187 1
SC_29974 RG_2005 N_2178143402_228b9aa 1.00000000 44.628 100.000 28.7949 1
SC_29975 RG_2005 N_2178143402_228b9aa 1.00000000 61.983 100.000 16.3970 1
SC_29976 RG_2005 N_2178143402_228b9aa 1.00000000 59.504 100.000 7.0225 1
SC_29977 RG_2005 N_2178148801_a1e1e39 1.00000000 76.860 100.000 5.7625 1
SC_29978 RG_2005 N_2178148801_a1e1e39 1.00000000 77.273 100.000 5.8117 1
SC_29979 RG_2005 N_2178148801_a1e1e39 1.00000000 91.736 100.000 15.6194 1
SC_29980 RG_2005 N_2178148801_a1e1e39 1.00000000 85.950 100.000 16.9668 1
SC_29981 RG_2005 N_2176158801_53280ec 1.00000000 90.909 100.000 16.2052 1
SC_29982 RG_2005 N_2176158801_53280ec 1.00000000 97.521 100.000 14.7282 1
SC_29983 RG_2005 N_2176158801_53280ec 1.00000000 94.215 100.000 19.7532 1
SC_29984 RG_2005 N_2176158801_53280ec 1.00000000 97.521 100.000 15.0533 1
SC_30197 RG_2005 N_2178091502_97cbb1c 1.00000000 25.620 100.000 24.5353 1
SC_30198 RG_2005 N_2178091603_4f41d55 1.00000000 51.240 100.000 14.1991 1
SC_30204 RG_2005 N_2177098902_7586844 1.00000000 14.876 100.000 10.3166 1
SC_30205 RG_2005 N_2177109601_795ec84 1.00000000 46.281 100.000 6.3942 1
SC_30206 RG_2005 N_2177109603_f68b372 1.00000000 40.496 100.000 4.8311 1
SC_30207 RG_2005 N_2178100705_c02407d 1.00000000 31.405 100.000 4.2573 1
SC_30208 RG_2005 N_2178100705_c02407d 1.00000000 41.818 100.000 2.6829 1
SC_30209 RG_2005 N_2178101701_55e404f 1.00000000 23.967 100.000 2.1750 1
SC_30210 RG_2005 N_2178101802_e83e3c5 1.00000000 51.240 100.000 2.0099 1
SC_30211 RG_2005 N_2178101804_8726200 1.00000000 12.397 100.000 4.4063 1
SC_30212 RG_2005 N_2178112002_d735985 1.00000000 35.537 100.000 9.6575 1
SC_30213 RG_2005 N_2178111103_705c8be 1.00000000 27.273 100.000 14.2088 1
SC_30214 RG_2005 N_2178111201_cd67640 1.00000000 28.926 100.000 6.3215 1
SC_30215 RG_2005 N_2178111302_ab99daa 1.00000000 18.182 100.000 4.3554 1
SC_30216 RG_2005 N_2178112401_a1b78ee 1.00000000 56.198 100.000 5.8078 1
SC_30217 RG_2005 N_2178111503_7416d92 1.00000000 81.818 100.000 11.4136 1
SC_30218 RG_2005 N_2178111504_db45834 1.00000000 95.041 100.000 10.7620 1
SC_30219 RG_2005 N_2177119801_3819d37 1.00000000 41.322 100.000 11.7719 1
SC_30220 RG_2005 N_2178110801_0007b78 1.00000000 78.512 100.000 16.6659 1
SC_30221 RG_2005 N_2178110903_5d51aef 1.00000000 92.562 100.000 7.0140 1
SC_30222 RG_2005 N_2178110902_f84244f 1.00000000 30.579 100.000 4.5205 1
SC_30223 RG_2005 N_2177129101_3fcd860 1.00000000 13.223 100.000 3.8415 1
SC_30224 RG_2005 N_2177129101_3fcd860 1.00000000 27.273 100.000 10.5681 1
SC_30225 RG_2005 N_2177129101_3fcd860 1.00000000 82.645 100.000 10.5364 1
SC_30226 RG_2005 N_2178124201_314fd92 1.00000000 96.694 100.000 13.7177 1
SC_30227 RG_2005 N_2178124201_314fd92 1.00000000 100.000 100.000 25.4235 1
SC_30228 RG_2005 N_2178124901_5a44ae8 1.00000000 98.347 100.000 12.4035 1
SC_30229 RG_2005 N_2178123903_a1c155d 1.00000000 96.694 100.000 15.1887 1
SC_30230 RG_2005 N_2178123901_11b7871 1.00000000 100.000 100.000 16.6515 1
SC_30231 RG_2005 N_2178133002_91fc2fa 1.00000000 96.694 100.000 4.0453 1
SC_30232 RG_2005 N_2178132104_ee133c0 1.00000000 97.273 100.000 8.3152 1
SC_30233 RG_2005 N_2178132101_62e4040 1.00000000 98.347 100.000 8.8509 1
SC_30234 RG_2005 N_2178131202_e8fed4b 1.00000000 87.603 100.000 6.7304 1
SC_30235 RG_2005 N_2178131303_b42036d 1.00000000 90.083 100.000 2.8219 1
SC_30236 RG_2005 N_2178131403_beafdc7 1.00000000 92.562 100.000 3.3384 1
SC_30237 RG_2005 N_2178131606_18baa04 1.00000000 97.521 100.000 2.0861 1
SC_30238 RG_2005 N_2178131604_9da7595 1.00000000 84.298 100.000 2.6137 1
SC_30239 RG_2005 N_2178130711_065583e 1.00000000 98.347 100.000 2.2018 1
SC_30240 RG_2005 N_2178131803_b1f1e50 1.00000000 100.000 100.000 2.9683 1
SC_30241 RG_2005 N_2178131806_520c96c 1.00000000 98.347 100.000 2.5927 1
SC_30242 RG_2005 N_2178132905_0c5ed3b 1.00000000 95.868 100.000 3.7220 1
SC_30243 RG_2005 N_2178142101_f782355 1.00000000 97.521 100.000 8.0594 1
SC_30244 RG_2005 N_2178142102_53b816a 1.00000000 100.000 100.000 12.9966 1
SC_30245 RG_2005 N_2178143201_1ba1200 1.00000000 100.000 100.000 8.3038 1
SC_30246 RG_2005 N_2178143303_6328d44 1.00000000 94.215 100.000 5.6208 1
SC_30247 RG_2005 N_2178143402_228b9aa 1.00000000 85.950 100.000 11.8010 1
SC_30248 RG_2005 N_2178143402_228b9aa 1.00000000 41.322 100.000 7.1727 1
SC_30249 RG_2005 N_2178143402_228b9aa 1.00000000 54.545 100.000 5.0716 1
SC_30250 RG_2005 N_2178143402_228b9aa 1.00000000 89.256 100.000 8.7480 1
SC_30251 RG_2005 N_2178143402_228b9aa 1.00000000 82.645 100.000 18.2019 1
SC_30252 RG_2005 N_2178143402_228b9aa 1.00000000 28.099 100.000 22.2599 1
SC_30253 RG_2005 N_2178143402_228b9aa 1.00000000 35.537 100.000 18.9449 1
SC_30254 RG_2005 N_2178148801_a1e1e39 1.00000000 79.339 100.000 18.5252 1
SC_30255 RG_2005 N_2178148801_a1e1e39 1.00000000 82.645 100.000 13.2033 1
SC_30256 RG_2005 N_2178148801_a1e1e39 1.00000000 82.645 100.000 3.4550 1
SC_30257 RG_2005 N_2178148801_a1e1e39 1.00000000 93.636 100.000 10.6500 1
SC_30258 RG_2005 N_2178148801_a1e1e39 1.00000000 94.215 100.000 19.7445 1
SC_30259 RG_2005 N_2178148801_a1e1e39 1.00000000 57.851 100.000 23.3891 1
SC_30260 RG_2005 N_2178148801_a1e1e39 1.00000000 92.562 100.000 9.3904 1
SC_30261 RG_2005 N_2178148801_a1e1e39 1.00000000 92.562 100.000 11.2619 1
SC_30262 RG_2005 N_2176158801_53280ec 1.00000000 90.909 100.000 12.9839 1
SC_30488 RG_2005 N_2178101701_55e404f 1.00000000 12.727 100.000 1.8664 1
SC_30489 RG_2005 N_2178101803_8a3c00c 1.00000000 2.479 100.000 1.1524 1
SC_30490 RG_2005 N_2178102801_07c562e 1.00000000 16.529 100.000 5.1614 1
SC_30491 RG_2005 N_2178102903_627eb88 1.00000000 16.529 100.000 3.2138 1
SC_30492 RG_2005 N_2178112003_055a6d2 1.00000000 87.603 100.000 29.7640 1
SC_30493 RG_2005 N_2178112104_bd30ff4 1.00000000 68.595 100.000 23.5735 1
SC_30494 RG_2005 N_2178112105_5f7df1a 1.00000000 59.504 100.000 10.3131 1
SC_30495 RG_2005 N_2178112401_a1b78ee 1.00000000 42.149 100.000 4.9519 1
SC_30496 RG_2005 N_2178112402_0e245c0 1.00000000 19.835 100.000 2.5797 1
SC_30497 RG_2005 N_2178112502_d093b2e 1.00000000 90.909 100.000 5.0268 1
SC_30498 RG_2005 N_2178112503_3a722c8 1.00000000 97.521 100.000 8.2865 1
SC_30499 RG_2005 N_2178113501_e2a11ed 1.00000000 97.521 100.000 15.5847 1
SC_30500 RG_2005 N_2178110903_5d51aef 1.00000000 100.000 100.000 10.9387 1
SC_30501 RG_2005 N_2178110903_5d51aef 1.00000000 95.868 100.000 6.4717 1
SC_30502 RG_2005 N_2178110902_f84244f 1.00000000 9.091 100.000 7.1616 1
SC_30503 RG_2005 N_2178124202_db361d0 1.00000000 0.000 100.000 6.6987 1
SC_30504 RG_2005 N_2178124201_314fd92 1.00000000 0.000 100.000 5.7026 1
SC_30506 RG_2005 N_2178124201_314fd92 1.00000000 95.868 100.000 8.4528 1
SC_30507 RG_2005 N_2178124201_314fd92 1.00000000 88.430 100.000 8.6225 1
SC_30508 RG_2005 N_2178124902_d1838c7 1.00000000 97.521 100.000 14.0666 1
SC_30509 RG_2005 N_2178124901_5a44ae8 1.00000000 72.727 100.000 14.3758 1
SC_30510 RG_2005 N_2178123903_a1c155d 1.00000000 64.463 100.000 6.5650 1
SC_30511 RG_2005 N_2178133003_b07e8ff 1.00000000 87.603 100.000 5.9304 1
SC_30512 RG_2005 N_2178132001_03e9cfa 1.00000000 90.000 100.000 9.4172 1
SC_30513 RG_2005 N_2178132103_f5eb89f 1.00000000 93.388 100.000 8.7983 1
SC_30514 RG_2005 N_2178132202_72f17b4 1.00000000 95.868 100.000 7.1340 1
SC_30515 RG_2005 N_2178131201_722f590 1.00000000 90.083 100.000 1.3163 1
SC_30516 RG_2005 N_2178132405_32b57ec 1.00000000 80.165 100.000 1.3964 1
SC_30517 RG_2005 N_2178132408_8bd91a3 1.00000000 95.868 100.000 1.4154 1
SC_30518 RG_2005 N_2178132602_45857d6 1.00000000 91.736 100.000 1.9787 1
SC_30519 RG_2005 N_2178132605_14de3ae 1.00000000 80.992 100.000 2.0149 1
SC_30520 RG_2005 N_2178132901_395c83d 1.00000000 100.000 100.000 3.2697 1
SC_30521 RG_2005 N_2178132902_d9b7737 1.00000000 99.174 100.000 3.1118 1
SC_30522 RG_2005 N_2178132905_0c5ed3b 1.00000000 93.388 100.000 5.1613 1
SC_30523 RG_2005 N_2178142101_f782355 1.00000000 96.694 100.000 1.7577 1
SC_30524 RG_2005 N_2178142203_3c3a61e 1.00000000 100.000 100.000 2.6037 1
SC_30525 RG_2005 N_2178143301_1b59689 1.00000000 100.000 100.000 2.2919 1
SC_30526 RG_2005 N_2178143401_141c24f 1.00000000 100.000 100.000 8.4748 1
SC_30527 RG_2005 N_2178143402_228b9aa 1.00000000 82.645 100.000 17.3329 1
SC_30528 RG_2005 N_2178143402_228b9aa 1.00000000 66.116 100.000 19.9091 1
SC_30529 RG_2005 N_2178143402_228b9aa 1.00000000 84.298 100.000 28.9412 1
SC_30530 RG_2005 N_2178143402_228b9aa 1.00000000 59.504 100.000 20.0909 1
SC_30531 RG_2005 N_2178143402_228b9aa 1.00000000 31.405 100.000 18.8750 1
SC_30532 RG_2005 N_2178143402_228b9aa 1.00000000 44.628 100.000 12.4203 1
SC_30533 RG_2005 N_2178148801_a1e1e39 1.00000000 28.926 100.000 30.0819 1
SC_30534 RG_2005 N_2178148801_a1e1e39 1.00000000 69.421 100.000 9.3958 1
SC_30535 RG_2005 N_2178148801_a1e1e39 1.00000000 86.777 100.000 6.9165 1
SC_30536 RG_2005 N_2178148801_a1e1e39 1.00000000 85.950 100.000 3.5399 1
SC_30537 RG_2005 N_2178148801_a1e1e39 1.00000000 100.000 100.000 17.0805 1
SC_30538 RG_2005 N_2178148801_a1e1e39 1.00000000 65.289 100.000 17.6867 1
SC_30539 RG_2005 N_2178148801_a1e1e39 1.00000000 83.471 100.000 7.2975 1
SC_30540 RG_2005 N_2178148801_a1e1e39 1.00000000 42.975 100.000 14.7684 1
SC_30541 RG_2005 N_2178148801_a1e1e39 1.00000000 74.380 100.000 26.2990 1
SC_30542 RG_2005 N_2178148801_a1e1e39 1.00000000 98.347 100.000 12.0143 1
SC_30773 RG_2005 N_2178112004_557bbcd 1.00000000 93.388 100.000 46.5436 1
SC_30774 RG_2005 N_2178113103_a59bc88 1.00000000 100.000 100.000 26.7745 1
SC_30775 RG_2005 N_2178113103_a59bc88 1.00000000 33.884 100.000 7.9677 1
SC_30776 RG_2005 N_2178113103_a59bc88 1.00000000 77.686 100.000 7.0678 1
SC_30779 RG_2005 N_2178113504_4c73cb5 1.00000000 95.041 100.000 7.0365 1
SC_30780 RG_2005 N_2178113505_ba8c22c 1.00000000 64.463 100.000 8.8495 1
SC_30781 RG_2005 N_2178114601_6929bf5 1.00000000 67.769 100.000 13.6929 1
SC_30782 RG_2005 N_2178125001_e599316 1.00000000 100.000 100.000 8.6450 1
SC_30783 RG_2005 N_2178125001_e599316 1.00000000 61.983 100.000 9.5249 1
SC_30787 RG_2005 N_2178124201_314fd92 1.00000000 87.603 100.000 4.8753 1
SC_30788 RG_2005 N_2178124201_314fd92 1.00000000 87.603 100.000 11.3858 1
SC_30789 RG_2005 N_2178124802_f408b15 1.00000000 83.471 100.000 13.9924 1
SC_30790 RG_2005 N_2178124801_878a6a4 1.00000000 84.298 100.000 6.6844 1
SC_30791 RG_2005 N_2178124901_5a44ae8 1.00000000 82.645 100.000 3.8310 1
SC_30792 RG_2005 N_2178123902_de7f838 1.00000000 97.521 100.000 6.6575 1
SC_30793 RG_2005 N_2178133003_b07e8ff 1.00000000 99.091 100.000 9.1041 1
SC_30794 RG_2005 N_2178132104_ee133c0 1.00000000 99.174 100.000 12.0399 1
SC_30795 RG_2005 N_2178132101_62e4040 1.00000000 95.041 100.000 5.6862 1
SC_30796 RG_2005 N_2178132405_32b57ec 1.00000000 98.347 100.000 2.5871 1
SC_30797 RG_2005 N_2178132408_8bd91a3 1.00000000 100.000 100.000 1.0427 1
SC_30798 RG_2005 N_2178132408_8bd91a3 1.00000000 100.000 100.000 2.4234 1
SC_30799 RG_2005 N_2178133601_bf4676a 1.00000000 84.298 100.000 2.5494 1
SC_30800 RG_2005 N_2178133702_8a05632 1.00000000 98.347 100.000 1.9913 1
SC_30801 RG_2005 N_2178134801_4e89c82 1.00000000 100.000 100.000 2.2611 1
SC_30802 RG_2005 N_2178132904_158e338 1.00000000 100.000 100.000 2.3471 1
SC_30803 RG_2005 N_2178143003_8acb50e 1.00000000 100.000 100.000 3.2574 1
SC_30804 RG_2005 N_2178142104_fff4fcd 1.00000000 99.174 100.000 4.0904 1
SC_30805 RG_2005 N_2178142204_b90abad 1.00000000 100.000 100.000 1.9324 1
SC_30806 RG_2005 N_2178143302_38c358e 1.00000000 100.000 100.000 5.9634 1
SC_30807 RG_2005 N_2178143402_228b9aa 1.00000000 100.000 100.000 16.1639 1
SC_30808 RG_2005 N_2178143402_228b9aa 1.00000000 97.521 100.000 13.0633 1
SC_30809 RG_2005 N_2178143402_228b9aa 1.00000000 92.562 100.000 25.1569 1
SC_30810 RG_2005 N_2178143402_228b9aa 1.00000000 99.174 100.000 19.6010 1
SC_30811 RG_2005 N_2178143402_228b9aa 1.00000000 70.248 100.000 30.3313 1
SC_30812 RG_2005 N_2178143402_228b9aa 1.00000000 62.810 100.000 23.1724 1
SC_30813 RG_2005 N_2178148801_a1e1e39 1.00000000 48.760 100.000 27.4071 1
SC_30814 RG_2005 N_2178148801_a1e1e39 1.00000000 31.405 100.000 48.1269 1
SC_30815 RG_2005 N_2178148801_a1e1e39 1.00000000 41.322 100.000 44.5330 1
SC_30816 RG_2005 N_2178148801_a1e1e39 1.00000000 52.066 100.000 20.0190 1
SC_30817 RG_2005 N_2178148801_a1e1e39 1.00000000 68.595 100.000 17.2717 1
SC_30818 RG_2005 N_2178148801_a1e1e39 1.00000000 99.091 100.000 18.0350 1
SC_30819 RG_2005 N_2178148801_a1e1e39 1.00000000 94.215 100.000 11.9825 1
SC_30820 RG_2005 N_2178148801_a1e1e39 1.00000000 95.868 100.000 5.6410 1
SC_30821 RG_2005 N_2178148801_a1e1e39 1.00000000 95.868 100.000 22.1363 1
SC_30822 RG_2005 N_2178148801_a1e1e39 1.00000000 88.430 100.000 23.7824 1
SC_31061 RG_2005 N_2178114602_1fc5177 1.00000000 62.810 100.000 5.7179 1
SC_31063 RG_2005 N_2178115901_b500719 1.00000000 77.686 100.000 5.4126 1
SC_31064 RG_2005 N_2178115901_b500719 1.00000000 98.347 100.000 8.1696 1
SC_31065 RG_2005 N_2178125001_e599316 1.00000000 100.000 100.000 10.4096 1
SC_31066 RG_2005 N_2178124202_db361d0 1.00000000 93.388 100.000 4.4655 1
SC_31069 RG_2005 N_2178124201_314fd92 1.00000000 97.521 100.000 13.7113 1
SC_31070 RG_2005 N_2178124201_314fd92 1.00000000 49.587 100.000 8.7518 1
SC_31071 RG_2005 N_2178124802_f408b15 1.00000000 59.504 100.000 13.9360 1
SC_31072 RG_2005 N_2178124802_f408b15 1.00000000 93.388 100.000 5.2133 1
SC_31073 RG_2005 N_2178124802_f408b15 1.00000000 99.174 100.000 5.4070 1
SC_31074 RG_2005 N_2178124902_d1838c7 1.00000000 85.124 100.000 6.3748 1
SC_31075 RG_2005 N_2178123902_de7f838 1.00000000 82.727 100.000 25.3911 1
SC_31076 RG_2005 N_2178133001_634aa4f 1.00000000 90.083 100.000 29.0243 1
SC_31077 RG_2005 N_2178132103_f5eb89f 1.00000000 85.124 100.000 19.9935 1
SC_31078 RG_2005 N_2178135403_c4ee85a 1.00000000 96.694 100.000 5.5528 1
SC_31079 RG_2005 N_2178135403_c4ee85a 1.00000000 85.950 100.000 3.2797 1
SC_31080 RG_2005 N_2178135403_c4ee85a 1.00000000 97.521 100.000 1.4179 1
SC_31081 RG_2005 N_2178133707_1f3294a 1.00000000 100.000 100.000 3.5641 1
SC_31082 RG_2005 N_2178133707_1f3294a 1.00000000 100.000 100.000 3.2933 1
SC_31083 RG_2005 N_2178134806_3d51710 1.00000000 99.174 100.000 1.5746 1
SC_31084 RG_2005 N_2178134809_50e5d42 1.00000000 100.000 100.000 2.1589 1
SC_31085 RG_2005 N_2178143003_8acb50e 1.00000000 100.000 100.000 3.4215 1
SC_31086 RG_2005 N_2178143003_8acb50e 1.00000000 98.347 100.000 3.9106 1
SC_31087 RG_2005 N_2178143201_1ba1200 1.00000000 100.000 100.000 1.9985 1
SC_31088 RG_2005 N_2178143303_6328d44 1.00000000 99.174 100.000 5.0815 1
SC_31089 RG_2005 N_2178143402_228b9aa 1.00000000 85.950 100.000 13.1024 1
SC_31090 RG_2005 N_2178143402_228b9aa 1.00000000 92.562 100.000 7.5143 1
SC_31091 RG_2005 N_2178143402_228b9aa 1.00000000 42.149 100.000 15.2822 1
SC_31092 RG_2005 N_2178143402_228b9aa 1.00000000 95.041 100.000 18.2049 1
SC_31093 RG_2005 N_2178148801_a1e1e39 1.00000000 94.215 100.000 18.7688 1
SC_31094 RG_2005 N_2178148801_a1e1e39 1.00000000 95.041 100.000 14.0321 1
SC_31095 RG_2005 N_2178148801_a1e1e39 1.00000000 72.727 100.000 23.0450 1
SC_31096 RG_2005 N_2178148801_a1e1e39 1.00000000 72.727 100.000 35.8045 1
SC_31097 RG_2005 N_2178148801_a1e1e39 1.00000000 55.372 100.000 46.6491 1
SC_31098 RG_2005 N_2178148801_a1e1e39 1.00000000 49.587 100.000 21.6626 1
SC_31099 RG_2005 N_2178148801_a1e1e39 1.00000000 55.372 100.000 37.6788 1
SC_31100 RG_2005 N_2178148801_a1e1e39 1.00000000 81.818 100.000 29.6935 1
SC_31101 RG_2005 N_2178148801_a1e1e39 1.00000000 66.116 100.000 9.9138 1
SC_31102 RG_2005 N_2178148801_a1e1e39 1.00000000 68.595 100.000 20.1932 1
SC_31103 RG_2005 N_2178148801_a1e1e39 1.00000000 73.554 100.000 23.2497 1
SC_31104 RG_2005 N_2178148801_a1e1e39 1.00000000 90.909 100.000 24.6494 1
SC_31351 RG_2005 N_2178124201_314fd92 1.00000000 100.000 100.000 15.9334 1
SC_31352 RG_2005 N_2178124201_314fd92 1.00000000 86.777 100.000 11.4940 1
SC_31353 RG_2005 N_2178124802_f408b15 1.00000000 94.215 100.000 5.5087 1
SC_31354 RG_2005 N_2178124802_f408b15 1.00000000 97.521 100.000 5.3990 1
SC_31355 RG_2005 N_2178124802_f408b15 1.00000000 96.694 100.000 4.1007 1
SC_31356 RG_2005 N_2178124802_f408b15 1.00000000 93.388 100.000 7.6270 1
SC_31357 RG_2005 N_2178124801_878a6a4 1.00000000 90.909 100.000 25.3508 1
SC_31358 RG_2005 N_2178123902_de7f838 1.00000000 91.736 100.000 17.1062 1
SC_31359 RG_2005 N_2178135403_c4ee85a 1.00000000 100.000 100.000 33.8708 1
SC_31360 RG_2005 N_2178135403_c4ee85a 1.00000000 100.000 100.000 13.4570 1
SC_31361 RG_2005 N_2178135403_c4ee85a 1.00000000 100.000 100.000 5.0380 1
SC_31362 RG_2005 N_2178135403_c4ee85a 1.00000000 99.174 100.000 4.5397 1
SC_31363 RG_2005 N_2178136503_97e1402 1.00000000 100.000 100.000 2.7894 1
SC_31364 RG_2005 N_2178135803_fce4cc0 1.00000000 100.000 100.000 1.5906 1
SC_31365 RG_2005 N_2178135802_f7537e2 1.00000000 100.000 100.000 1.8380 1
SC_31366 RG_2005 N_2178135802_f7537e2 1.00000000 100.000 100.000 2.2697 1
SC_31367 RG_2005 N_2178135802_f7537e2 1.00000000 100.000 100.000 2.5222 1
SC_31368 RG_2005 N_2178146205_d4a0388 1.00000000 100.000 100.000 2.3800 1
SC_31369 RG_2005 N_2178146205_d4a0388 1.00000000 100.000 100.000 2.6053 1
SC_31370 RG_2005 N_2178146208_5a5eaa4 1.00000000 66.116 100.000 8.5182 1
SC_31371 RG_2005 N_2178143402_228b9aa 1.00000000 1.653 100.000 8.3180 1
SC_31372 RG_2005 N_2178143402_228b9aa 1.00000000 79.339 100.000 9.3615 1
SC_31373 RG_2005 N_2178143402_228b9aa 1.00000000 22.314 100.000 13.5690 1
SC_31374 RG_2005 N_2178148701_f7c8290 1.00000000 14.876 100.000 19.3497 1
SC_31375 RG_2005 N_2178148801_a1e1e39 1.00000000 47.934 100.000 10.1235 1
SC_31376 RG_2005 N_2178148801_a1e1e39 1.00000000 45.455 100.000 5.6869 1
SC_31377 RG_2005 N_2178148801_a1e1e39 1.00000000 30.579 100.000 15.3420 1
SC_31378 RG_2005 N_2178148801_a1e1e39 1.00000000 42.975 100.000 16.8385 1
SC_31379 RG_2005 N_2178148801_a1e1e39 1.00000000 76.860 100.000 40.0080 1
SC_31380 RG_2005 N_2178148801_a1e1e39 1.00000000 62.810 100.000 41.6942 1
SC_31381 RG_2005 N_2178148801_a1e1e39 1.00000000 79.339 100.000 36.9755 1
SC_31382 RG_2005 N_2178148801_a1e1e39 1.00000000 32.727 100.000 37.3873 1
SC_31383 RG_2005 N_2178148801_a1e1e39 1.00000000 57.851 100.000 10.6773 1
SC_31384 RG_2005 N_2178148801_a1e1e39 1.00000000 60.331 100.000 14.9393 1
SC_31385 RG_2005 N_2178148801_a1e1e39 1.00000000 86.777 100.000 15.6755 1
SC_31386 RG_2005 N_2178148801_a1e1e39 1.00000000 42.975 100.000 17.5027 1
SC_31631 RG_2005 N_2178125103_0cc0954 1.00000000 98.347 100.000 27.0318 1
SC_31632 RG_2005 N_2178124201_314fd92 1.00000000 100.000 100.000 14.6905 1
SC_31633 RG_2005 N_2178124201_314fd92 1.00000000 95.041 100.000 12.6693 1
SC_31634 RG_2005 N_2178124802_f408b15 1.00000000 96.694 100.000 7.4139 1
SC_31635 RG_2005 N_2178124802_f408b15 1.00000000 90.083 100.000 4.9160 1
SC_31636 RG_2005 N_2178124802_f408b15 1.00000000 90.083 100.000 2.9105 1
SC_31637 RG_2005 N_2178124802_f408b15 1.00000000 95.041 100.000 1.8294 1
SC_31638 RG_2005 N_2178124802_f408b15 1.00000000 92.727 100.000 7.5633 1
SC_31639 RG_2005 N_2178124802_f408b15 1.00000000 91.736 100.000 10.1379 1
SC_31640 RG_2005 N_2178136402_4bd3466 1.00000000 100.000 100.000 10.7917 1
SC_31641 RG_2005 N_2178136402_4bd3466 1.00000000 100.000 100.000 2.5273 1
SC_31642 RG_2005 N_2178136402_4bd3466 1.00000000 100.000 100.000 3.4707 1
SC_31643 RG_2005 N_2178136501_73e6872 1.00000000 100.000 100.000 4.2927 1
SC_31644 RG_2005 N_2178137601_dedf1b3 1.00000000 100.000 100.000 4.0214 1
SC_31645 RG_2005 N_2178137603_2aa84df 1.00000000 100.000 100.000 9.8108 1
SC_31646 RG_2005 N_2178136801_2d17868 1.00000000 100.000 100.000 5.4597 1
SC_31647 RG_2005 N_2178136801_2d17868 1.00000000 97.521 100.000 22.1734 1
SC_31648 RG_2005 N_2178147001_2634e64 1.00000000 89.256 100.000 30.3122 1
SC_31649 RG_2005 N_2178146205_d4a0388 1.00000000 97.521 100.000 4.0518 1
SC_31650 RG_2005 N_2178146205_d4a0388 1.00000000 100.000 100.000 7.8048 1
SC_31651 RG_2005 N_2178146208_5a5eaa4 1.00000000 92.562 100.000 12.5691 1
SC_31652 RG_2005 N_2178147302_4f7349b 1.00000000 74.380 100.000 14.6251 1
SC_31653 RG_2005 N_2178148501_2716d88 1.00000000 77.686 100.000 10.3425 1
SC_31654 RG_2005 N_2178148501_2716d88 1.00000000 23.967 100.000 19.9257 1
SC_31655 RG_2005 N_2178148701_f7c8290 1.00000000 66.116 100.000 20.6900 1
SC_31656 RG_2005 N_2178148801_a1e1e39 1.00000000 37.190 100.000 12.7524 1
SC_31657 RG_2005 N_2178148801_a1e1e39 1.00000000 0.000 100.000 7.1587 1
SC_31658 RG_2005 N_2178148801_a1e1e39 1.00000000 0.000 100.000 14.3931 1
SC_31659 RG_2005 N_2178148801_a1e1e39 1.00000000 12.397 100.000 26.3820 1
SC_31660 RG_2005 N_2178148801_a1e1e39 1.00000000 73.554 100.000 20.8477 1
SC_31661 RG_2005 N_2178148801_a1e1e39 1.00000000 19.835 100.000 19.6567 1
SC_31662 RG_2005 N_2178148801_a1e1e39 1.00000000 36.364 100.000 25.2173 1
SC_31663 RG_2005 N_2178148801_a1e1e39 1.00000000 40.000 100.000 18.5376 1
SC_31666 RG_2005 N_2178148801_a1e1e39 1.00000000 68.595 100.000 18.7843 1
SC_31667 RG_2005 N_2178148801_a1e1e39 1.00000000 71.074 100.000 16.6385 1
SC_31912 RG_2005 N_2178125103_0cc0954 1.00000000 100.000 100.000 22.4309 1
SC_31913 RG_2005 N_2178125103_0cc0954 1.00000000 99.174 100.000 14.7913 1
SC_31914 RG_2005 N_2178125103_0cc0954 1.00000000 100.000 100.000 10.9182 1
SC_31915 RG_2005 N_2178124802_f408b15 1.00000000 90.083 100.000 5.9580 1
SC_31916 RG_2005 N_2178124802_f408b15 1.00000000 100.000 100.000 5.3386 1
SC_31917 RG_2005 N_2178124802_f408b15 1.00000000 95.868 100.000 3.1503 1
SC_31918 RG_2005 N_2178124802_f408b15 1.00000000 76.860 100.000 3.7843 1
SC_31919 RG_2005 N_2178124802_f408b15 1.00000000 90.909 100.000 3.5964 1
SC_31920 RG_2005 N_2178136402_4bd3466 1.00000000 91.736 100.000 1.3629 1
SC_31921 RG_2005 N_2178136404_52f1ff2 1.00000000 100.000 100.000 2.7461 1
SC_31922 RG_2005 N_2178136404_52f1ff2 1.00000000 100.000 100.000 4.2463 1
SC_31923 RG_2005 N_2178136404_52f1ff2 1.00000000 100.000 100.000 2.9282 1
SC_31924 RG_2005 N_2178136502_cdf2758 1.00000000 100.000 100.000 3.3086 1
SC_31925 RG_2005 N_2178137603_2aa84df 1.00000000 93.388 100.000 4.8630 1
SC_31926 RG_2005 N_2178137603_2aa84df 1.00000000 84.298 100.000 12.1147 1
SC_31927 RG_2005 N_2178137801_08ba9c4 1.00000000 85.950 100.000 6.0423 1
SC_31928 RG_2005 N_2178137801_08ba9c4 1.00000000 100.000 100.000 20.2786 1
SC_31929 RG_2005 N_2178147001_2634e64 1.00000000 66.942 100.000 35.1049 1
SC_31930 RG_2005 N_2178148201_422147e 1.00000000 93.388 100.000 13.0562 1
SC_31931 RG_2005 N_2178147203_70a84ab 1.00000000 90.083 100.000 9.0364 1
SC_31932 RG_2005 N_2178147302_4f7349b 1.00000000 77.686 100.000 11.8381 1
SC_31933 RG_2005 N_2178148401_0b1af1e 1.00000000 93.388 100.000 12.8055 1
SC_31934 RG_2005 N_2178148501_2716d88 1.00000000 80.992 100.000 12.9379 1
SC_31935 RG_2005 N_2178148701_f7c8290 1.00000000 31.405 100.000 18.2099 1
SC_31936 RG_2005 N_2178148701_f7c8290 1.00000000 60.331 100.000 11.3050 1
SC_31937 RG_2005 N_2178148801_a1e1e39 1.00000000 36.364 100.000 9.6692 1
SC_31938 RG_2005 N_2178148801_a1e1e39 1.00000000 8.264 100.000 8.6673 1
SC_31939 RG_2005 N_2178148801_a1e1e39 1.00000000 0.000 100.000 5.5530 1
SC_31940 RG_2005 N_2178148801_a1e1e39 1.00000000 0.000 100.000 21.2347 1
SC_31941 RG_2005 N_2178148801_a1e1e39 1.00000000 8.264 100.000 20.2555 1
SC_31942 RG_2005 N_2178148801_a1e1e39 1.00000000 24.793 100.000 16.8149 1
SC_31943 RG_2005 N_2178148801_a1e1e39 1.00000000 34.711 100.000 22.0643 1
SC_32193 RG_2005 N_2179122305_4fc0749 1.00000000 100.000 100.000 23.9031 1
SC_32194 RG_2005 N_2179122501_08f92ea 1.00000000 95.041 100.000 13.5583 1
SC_32195 RG_2005 N_2179122602_e6c3b0d 1.00000000 97.521 100.000 8.3937 1
SC_32196 RG_2005 N_2179121802_6f862a0 1.00000000 97.521 100.000 10.9335 1
SC_32197 RG_2005 N_2179121801_96d5b00 1.00000000 100.000 100.000 3.4285 1
SC_32198 RG_2005 N_2179122803_c77ee3e 1.00000000 99.174 100.000 2.9316 1
SC_32199 RG_2005 N_2179122805_086ba1e 1.00000000 100.000 100.000 9.6169 1
SC_32200 RG_2005 N_2178136404_52f1ff2 1.00000000 100.000 100.000 5.9714 1
SC_32201 RG_2005 N_2178136404_52f1ff2 1.00000000 100.000 100.000 4.2218 1
SC_32202 RG_2005 N_2178136404_52f1ff2 1.00000000 100.000 100.000 5.4436 1
SC_32203 RG_2005 N_2178136404_52f1ff2 1.00000000 100.000 100.000 1.5615 1
SC_32204 RG_2005 N_2178138601_476f250 1.00000000 100.000 100.000 3.6984 1
SC_32205 RG_2005 N_2178138601_476f250 1.00000000 99.174 100.000 4.1704 1
SC_32206 RG_2005 N_2178138601_476f250 1.00000000 96.694 100.000 6.7030 1
SC_32207 RG_2005 N_2178137801_08ba9c4 1.00000000 81.818 100.000 10.7814 1
SC_32208 RG_2005 N_2178137801_08ba9c4 1.00000000 84.298 100.000 19.8062 1
SC_32209 RG_2005 N_2178147001_2634e64 1.00000000 88.430 100.000 27.3325 1
SC_32210 RG_2005 N_2178148201_422147e 1.00000000 25.620 100.000 22.7369 1
SC_32211 RG_2005 N_2178148201_422147e 1.00000000 4.959 100.000 3.7407 1
SC_32212 RG_2005 N_2178148301_8027c4b 1.00000000 19.008 100.000 7.6137 1
SC_32213 RG_2005 N_2178148401_0b1af1e 1.00000000 72.727 100.000 11.9811 1
SC_32214 RG_2005 N_2178148501_2716d88 1.00000000 66.942 100.000 32.8950 1
SC_32215 RG_2005 N_2178148701_f7c8290 1.00000000 20.661 100.000 26.1342 1
SC_32216 RG_2005 N_2178148701_f7c8290 1.00000000 30.579 100.000 17.6637 1
SC_32217 RG_2005 N_2178148801_a1e1e39 1.00000000 26.446 100.000 9.8660 1
SC_32218 RG_2005 N_2178148801_a1e1e39 1.00000000 19.835 100.000 8.1533 1
SC_32219 RG_2005 N_2178148801_a1e1e39 1.00000000 14.876 100.000 7.7923 1
SC_32220 RG_2005 N_2178148801_a1e1e39 1.00000000 0.000 100.000 8.5626 1
SC_32221 RG_2005 N_2178148801_a1e1e39 1.00000000 0.000 100.000 25.5019 1
SC_32222 RG_2005 N_2178148801_a1e1e39 1.00000000 4.132 100.000 18.3790 1
SC_32223 RG_2005 N_2178148801_a1e1e39 1.00000000 0.000 100.000 24.5575 1
SC_32473 RG_2005 N_2179122305_4fc0749 1.00000000 81.818 100.000 16.3461 1
SC_32474 RG_2005 N_2179122501_08f92ea 1.00000000 84.298 100.000 10.6576 1
SC_32475 RG_2005 N_2179122602_e6c3b0d 1.00000000 98.347 100.000 14.9725 1
SC_32476 RG_2005 N_2179121802_6f862a0 1.00000000 73.554 100.000 21.0392 1
SC_32477 RG_2005 N_2179121801_96d5b00 1.00000000 86.777 100.000 20.7826 1
SC_32478 RG_2005 N_2179122803_c77ee3e 1.00000000 93.388 100.000 21.6170 1
SC_32479 RG_2005 N_2179122901_23ce81b 1.00000000 70.909 100.000 40.3825 1
SC_32480 RG_2005 N_2179122901_23ce81b 1.00000000 52.066 100.000 32.8213 1
SC_32481 RG_2005 N_2179130501_68fb310 1.00000000 95.868 100.000 12.6277 1
SC_32482 RG_2005 N_2179130501_68fb310 1.00000000 100.000 100.000 15.9035 1
SC_32483 RG_2005 N_2179130501_68fb310 1.00000000 90.083 100.000 6.1655 1
SC_32484 RG_2005 N_2178139601_289c84b 1.00000000 89.256 100.000 4.0050 1
SC_32485 RG_2005 N_2178139601_289c84b 1.00000000 94.215 100.000 3.4988 1
SC_32486 RG_2005 N_2178138601_476f250 1.00000000 95.041 100.000 4.3286 1
SC_32487 RG_2005 N_2178137801_08ba9c4 1.00000000 99.174 100.000 50.0903 1
SC_32488 RG_2005 N_2178137801_08ba9c4 1.00000000 68.595 100.000 32.4510 1
SC_32489 RG_2005 N_2178147001_2634e64 1.00000000 91.736 100.000 17.7283 1
SC_32490 RG_2005 N_2178148201_422147e 1.00000000 3.306 100.000 26.2808 1
SC_32491 RG_2005 N_2178148201_422147e 1.00000000 0.000 100.000 25.1035 1
SC_32492 RG_2005 N_2178148301_8027c4b 1.00000000 5.785 100.000 11.8844 1
SC_32493 RG_2005 N_2178148401_0b1af1e 1.00000000 57.851 100.000 18.6205 1
SC_32494 RG_2005 N_2178148501_2716d88 1.00000000 64.463 100.000 22.1707 1
SC_32495 RG_2005 N_2178148701_f7c8290 1.00000000 55.372 100.000 19.5988 1
SC_32496 RG_2005 N_2178149701_35cfe2a 1.00000000 52.066 100.000 22.3643 1
SC_32497 RG_2005 N_2178149701_35cfe2a 1.00000000 55.372 100.000 51.8672 1
SC_32498 RG_2005 N_2178149701_35cfe2a 1.00000000 61.157 100.000 17.8054 1
SC_32499 RG_2005 N_2178149701_35cfe2a 1.00000000 90.083 100.000 7.0358 1
SC_32500 RG_2005 N_2178149701_35cfe2a 1.00000000 61.157 100.000 5.7801 1
SC_32501 RG_2005 N_2178148801_a1e1e39 1.00000000 11.570 100.000 9.2607 1
SC_32502 RG_2005 N_2178148801_a1e1e39 1.00000000 46.281 100.000 11.7371 1
SC_32759 RG_2005 N_2179132004_56a4356 1.00000000 0.000 100.000 40.1740 1
SC_32760 RG_2005 N_2179132004_56a4356 1.00000000 29.752 100.000 48.9179 1
SC_32761 RG_2005 N_2179130501_68fb310 1.00000000 72.727 100.000 29.7735 1
SC_32762 RG_2005 N_2179130501_68fb310 1.00000000 5.785 100.000 9.4249 1
SC_32763 RG_2005 N_2179130501_68fb310 1.00000000 23.967 100.000 16.4651 1
SC_32764 RG_2005 N_2179130602_fa94698 1.00000000 95.041 100.000 20.7314 1
SC_32765 RG_2005 N_2179130602_fa94698 1.00000000 81.818 100.000 6.2109 1
SC_32766 RG_2005 N_2179130602_fa94698 1.00000000 98.347 100.000 27.0004 1
SC_32767 RG_2005 N_2179130602_fa94698 1.00000000 40.496 100.000 38.1923 1
SC_32768 RG_2005 N_2178147001_2634e64 1.00000000 64.463 100.000 30.3166 1
SC_32769 RG_2005 N_2178148201_422147e 1.00000000 0.000 100.000 20.5042 1
SC_32770 RG_2005 N_2178148201_422147e 1.00000000 0.000 100.000 19.7549 1
SC_32771 RG_2005 N_2178148301_8027c4b 1.00000000 0.000 100.000 15.9950 1
SC_32772 RG_2005 N_2179141601_f5fa501 1.00000000 0.000 100.000 18.8466 1
SC_32773 RG_2005 N_2179141601_f5fa501 1.00000000 9.917 100.000 14.2822 1
SC_32774 RG_2005 N_2179141601_f5fa501 1.00000000 19.835 100.000 12.0273 1
SC_32775 RG_2005 N_2179140701_a4903a1 1.00000000 70.248 100.000 53.4932 1
SC_32776 RG_2005 N_2179140701_a4903a1 1.00000000 28.099 100.000 59.9556 1
SC_32777 RG_2005 N_2178149701_35cfe2a 1.00000000 9.091 100.000 20.1914 1
SC_32778 RG_2005 N_2178149701_35cfe2a 1.00000000 0.000 100.000 15.2554 1
SC_32779 RG_2005 N_2178149701_35cfe2a 1.00000000 9.917 100.000 7.6855 1
SC_32780 RG_2005 N_2178149701_35cfe2a 1.00000000 47.107 100.000 34.4662 1
SC_32781 RG_2005 N_2178149701_35cfe2a 1.00000000 37.190 100.000 36.6660 1
SC_33039 RG_2005 N_2179130501_68fb310 1.00000000 17.355 100.000 45.7451 1
SC_33040 RG_2005 N_2179130501_68fb310 1.00000000 20.661 100.000 47.9055 1
SC_33041 RG_2005 N_2179130501_68fb310 1.00000000 66.116 100.000 15.7688 1
SC_33042 RG_2005 N_2179130602_fa94698 1.00000000 100.000 100.000 13.6788 1
SC_33043 RG_2005 N_2179130602_fa94698 1.00000000 85.950 100.000 28.8725 1
SC_33044 RG_2005 N_2179130602_fa94698 1.00000000 55.372 100.000 14.2914 1
SC_33045 RG_2005 N_2179130602_fa94698 1.00000000 5.785 100.000 8.1465 1
SC_33046 RG_2005 N_2178147001_2634e64 1.00000000 9.917 100.000 11.3200 1
SC_33047 RG_2005 N_2178148201_422147e 1.00000000 34.711 100.000 10.2209 1
SC_33048 RG_2005 N_2178148201_422147e 1.00000000 14.050 100.000 16.4653 1
SC_33049 RG_2005 N_2179141601_f5fa501 1.00000000 32.231 100.000 13.7704 1
SC_33050 RG_2005 N_2179141601_f5fa501 1.00000000 57.025 100.000 26.1347 1
SC_33051 RG_2005 N_2179141601_f5fa501 1.00000000 14.050 100.000 34.0324 1
SC_33052 RG_2005 N_2179141601_f5fa501 1.00000000 12.397 100.000 8.9627 1
SC_33053 RG_2005 N_2179141701_02d9717 1.00000000 62.810 100.000 32.7888 1
SC_33054 RG_2005 N_2179141701_02d9717 1.00000000 70.248 100.000 52.9111 1
SC_33055 RG_2005 N_2179140701_a4903a1 1.00000000 13.223 100.000 78.0639 1
SC_33056 RG_2005 N_2179140701_a4903a1 1.00000000 5.785 100.000 57.4202 1
SC_33057 RG_2005 N_2178149701_35cfe2a 1.00000000 9.091 100.000 13.8668 1
SC_33058 RG_2005 N_2178149701_35cfe2a 1.00000000 1.653 100.000 18.8681 1
SC_33316 RG_2005 N_2179130501_68fb310 1.00000000 90.909 100.000 28.2017 1
SC_33317 RG_2005 N_2179130601_a34c052 1.00000000 64.463 100.000 24.8608 1
SC_33318 RG_2005 N_2179130602_fa94698 1.00000000 100.000 100.000 8.8812 1
SC_33319 RG_2005 N_2179130602_fa94698 1.00000000 100.000 100.000 8.8001 1
SC_33320 RG_2005 N_2179130602_fa94698 1.00000000 89.256 100.000 22.7590 1
SC_33321 RG_2005 N_2179130602_fa94698 1.00000000 73.554 100.000 15.6495 1
SC_33322 RG_2005 N_2179130602_fa94698 1.00000000 53.719 100.000 13.0875 1
SC_33323 RG_2005 N_2178148201_422147e 1.00000000 49.587 100.000 10.7627 1
SC_33324 RG_2005 N_2179141601_f5fa501 1.00000000 17.355 100.000 7.2353 1
SC_33325 RG_2005 N_2179141601_f5fa501 1.00000000 68.595 100.000 7.9716 1
SC_33326 RG_2005 N_2179141601_f5fa501 1.00000000 76.033 100.000 14.4076 1
SC_33327 RG_2005 N_2179141601_f5fa501 1.00000000 34.711 100.000 13.9417 1
SC_33328 RG_2005 N_2179141601_f5fa501 1.00000000 0.000 100.000 8.0114 1
SC_33329 RG_2005 N_2179141701_02d9717 1.00000000 49.587 100.000 14.7919 1
SC_33330 RG_2005 N_2179141701_02d9717 1.00000000 74.380 100.000 37.7169 1
SC_33331 RG_2005 N_2179141701_02d9717 1.00000000 94.215 100.000 31.8373 1
SC_33332 RG_2005 N_2179141701_02d9717 1.00000000 62.810 100.000 40.4577 1
SC_33333 RG_2005 N_2179141701_02d9717 1.00000000 60.331 100.000 14.5382 1
SC_33334 RG_2005 N_2179140701_a4903a1 1.00000000 53.719 100.000 18.7448 1
SC_33593 RG_2005 N_2179135401_9ccfd01 1.00000000 36.364 100.000 56.1777 1
SC_33594 RG_2005 N_2179130602_fa94698 1.00000000 70.248 100.000 33.6623 1
SC_33595 RG_2005 N_2179130602_fa94698 1.00000000 99.174 100.000 13.1120 1
SC_33596 RG_2005 N_2179130602_fa94698 1.00000000 100.000 100.000 14.4149 1
SC_33597 RG_2005 N_2179130602_fa94698 1.00000000 82.645 100.000 23.7811 1
SC_33598 RG_2005 N_2179130602_fa94698 1.00000000 65.289 100.000 20.2747 1
SC_33599 RG_2005 N_2178148201_422147e 1.00000000 92.562 100.000 19.5804 1
SC_33600 RG_2005 N_2179141601_f5fa501 1.00000000 76.860 100.000 17.7639 1
SC_33601 RG_2005 N_2179141601_f5fa501 1.00000000 95.041 100.000 18.4749 1
SC_33602 RG_2005 N_2179141601_f5fa501 1.00000000 82.645 100.000 17.6985 1
SC_33603 RG_2005 N_2179141601_f5fa501 1.00000000 43.802 100.000 8.2917 1
SC_33604 RG_2005 N_2179141601_f5fa501 1.00000000 17.355 100.000 6.1742 1
SC_33605 RG_2005 N_2179141701_02d9717 1.00000000 76.033 100.000 21.2131 1
SC_33606 RG_2005 N_2179141701_02d9717 1.00000000 89.256 100.000 37.0821 1
SC_33607 RG_2005 N_2179141701_02d9717 1.00000000 58.678 100.000 31.5791 1
SC_33608 RG_2005 N_2179141701_02d9717 1.00000000 79.339 100.000 17.1032 1
SC_33609 RG_2005 N_2179141701_02d9717 1.00000000 63.636 100.000 14.7304 1
SC_33869 RG_2005 N_2179135401_9ccfd01 1.00000000 0.000 100.000 59.6902 1
SC_33870 RG_2005 N_2179135401_9ccfd01 1.00000000 14.050 100.000 64.0210 1
SC_33871 RG_2005 N_2179130602_fa94698 1.00000000 63.636 100.000 49.2873 1
SC_33872 RG_2005 N_2179130602_fa94698 1.00000000 92.562 100.000 20.5503 1
SC_33873 RG_2005 N_2179130602_fa94698 1.00000000 61.157 100.000 10.5779 1
SC_33874 RG_2005 N_2179141601_f5fa501 1.00000000 48.760 100.000 13.9251 1
SC_33875 RG_2005 N_2179141601_f5fa501 1.00000000 61.983 100.000 16.3503 1
SC_33876 RG_2005 N_2179141601_f5fa501 1.00000000 71.901 100.000 17.3664 1
SC_33877 RG_2005 N_2179141601_f5fa501 1.00000000 92.562 100.000 21.8731 1
SC_33878 RG_2005 N_2179141601_f5fa501 1.00000000 38.843 100.000 12.2553 1
SC_33879 RG_2005 N_2179141601_f5fa501 1.00000000 61.157 100.000 24.2527 1
SC_33880 RG_2005 N_2179141701_02d9717 1.00000000 57.025 100.000 48.7089 1
SC_33881 RG_2005 N_2179141701_02d9717 1.00000000 69.421 100.000 39.8878 1
SC_33882 RG_2005 N_2179141701_02d9717 1.00000000 41.322 100.000 29.5864 1
SC_33883 RG_2005 N_2179141701_02d9717 1.00000000 70.248 100.000 12.2459 1
SC_34144 RG_2005 N_2179135401_9ccfd01 1.00000000 0.000 100.000 29.2734 1
SC_34145 RG_2005 N_2179135401_9ccfd01 1.00000000 0.000 100.000 49.9627 1
SC_34146 RG_2005 N_2179135401_9ccfd01 1.00000000 24.793 100.000 52.7424 1
SC_34147 RG_2005 N_2179130602_fa94698 1.00000000 8.264 100.000 42.0723 1
SC_34148 RG_2005 N_2179141601_f5fa501 1.00000000 0.000 100.000 23.8695 1
SC_34149 RG_2005 N_2179141601_f5fa501 1.00000000 2.479 100.000 10.2403 1
SC_34150 RG_2005 N_2179141601_f5fa501 1.00000000 4.959 100.000 6.9356 1
SC_34151 RG_2005 N_2179141601_f5fa501 1.00000000 37.190 100.000 7.9912 1
SC_34152 RG_2005 N_2179141601_f5fa501 1.00000000 9.091 100.000 16.5906 1
SC_34153 RG_2005 N_2179141601_f5fa501 1.00000000 0.000 100.000 22.3857 1
SC_34155 RG_2005 N_2179141701_02d9717 1.00000000 60.331 100.000 33.9772 1
SC_34418 RG_2005 N_2179135401_9ccfd01 1.00000000 0.000 100.000 37.1224 1
SC_34419 RG_2005 N_2179135401_9ccfd01 1.00000000 0.000 100.000 50.6362 1
SC_34420 RG_2005 N_2179135401_9ccfd01 1.00000000 0.000 100.000 56.3281 1
SC_34421 RG_2005 N_2179135401_9ccfd01 1.00000000 0.000 100.000 74.2365 1
SC_34422 RG_2005 N_2179141601_f5fa501 1.00000000 0.000 100.000 54.3467 1
SC_34423 RG_2005 N_2179141601_f5fa501 1.00000000 0.826 100.000 51.8069 1
SC_34424 RG_2005 N_2179141601_f5fa501 1.00000000 0.000 100.000 63.9733 1
SC_34694 RG_2005 N_2179135401_9ccfd01 1.00000000 0.000 100.000 38.3646 1
SC_34695 RG_2005 N_2179135401_9ccfd01 1.00000000 0.000 100.000 53.1870 1
SC_34696 RG_2005 N_2179141601_f5fa501 1.00000000 0.000 100.000 53.7268 1
SC_34697 RG_2005 N_2179141601_f5fa501 1.00000000 0.000 100.000 50.6059 1
SC_34698 RG_2005 N_2179141601_f5fa501 1.00000000 0.826 100.000 40.4776 1
SC_34969 RG_2005 N_2179135401_9ccfd01 1.00000000 0.000 100.000 24.8825 1
SC_34970 RG_2005 N_2179141601_f5fa501 1.00000000 0.000 100.000 48.0634 1

[SUBAREAS]
SC_22963 0.0150 0.2000 2.0000 5.0000 25 OUTLET
SC_22964 0.0150 0.2000 2.0000 5.0000 25 OUTLET
SC_23248 0.0150 0.2000 2.0000 5.0000 25 OUTLET
SC_23249 0.0150 0.2000 2.0000 5.0000 25 OUTLET
SC_23250 0.0150 0.2000 2.0000 5.0000 25 OUTLET
SC_23251 0.0150 0.2000 2.0000 5.0000 25 OUTLET
SC_23252 0.0150 0.2000 2.0000 5.0000 25 OUTLET
SC_23253 0.0150 0.2000 2.0000 5.0000 25 OUTLET
SC_23536 0.0150 0.2000 2.0000 5.0000 25 OUTLET
SC_23537 0.0150 0.2000 2.0000 5.0000 25 OUTLET
SC_23538 0.0150 0.2000 2.0000 5.0000 25 OUTLET
SC_23539 0.0150 0.2000 2.0000 5.0000 25 OUTLET
SC_23540 0.0150 0.2000 2.0000 5.0000 25 OUTLET
SC_23541 0.0150 0.2000 2.0000 5.0000 25 OUTLET
SC_23542 0.0150 0.2000 2.0000 5.0000 25 OUTLET
SC_23543 0.0150 0.2000 2.0000 5.0000 25 OUTLET
SC_23823 0.0150 0.2000 2.0000 5.0000 25 OUTLET
SC_23824 0.0150 0.2000 2.0000 5.0000 25 OUTLET
SC_23825 0.0150 0.2000 2.0000 5.0000 25 OUTLET
SC_23826 0.0150 0.2000 2.0000 5.0000 25 OUTLET
SC_23827 0.0150 0.2000 2.0000 5.0000 25 OUTLET
SC_23828 0.0150 0.2000 2.0000 5.0000 25 OUTLET
SC_23829 0.0150 0.2000 2.0000 5.0000 25 OUTLET
SC_23830 0.0150 0.2000 2.0000 5.0000 25 OUTLET
SC_23831 0.0150 0.2000 2.0000 5.0000 25 OUTLET
SC_23832 0.0150 0.2000 2.0000 5.0000 25 OUTLET
SC_24105 0.0150 0.2000 2.0000 5.0000 25 OUTLET
SC_24106 0.0150 0.2000 2.0000 5.0000 25 OUTLET
SC_24107 0.0150 0.2000 2.0000 5.0000 25 OUTLET
SC_24108 0.0150 0.2000 2.0000 5.0000 25 OUTLET
SC_24109 0.0150 0.2000 2.0000 5.0000 25 OUTLET
SC_24110 0.0150 0.2000 2.0000 5.0000 25 OUTLET
SC_24111 0.0150 0.2000 2.0000 5.0000 25 OUTLET
SC_24112 0.0150 0.2000 2.0000 5.0000 25 OUTLET
SC_24113 0.0150 0.2000 2.0000 5.0000 25 OUTLET
SC_24114 0.0150 0.2000 2.0000 5.0000 25 OUTLET
SC_24115 0.0150 0.2000 2.0000 5.0000 25 OUTLET
SC_24116 0.0150 0.2000 2.0000 5.0000 25 OUTLET
SC_24117 0.0150 0.2000 2.0000 5.0000 25 OUTLET
SC_24118 0.0150 0.2000 2.0000 5.0000 25 OUTLET
SC_24387 0.0150 0.2000 2.0000 5.0000 25 OUTLET
SC_24388 0.0150 0.2000 2.0000 5.0000 25 OUTLET
SC_24389 0.0150 0.2000 2.0000 5.0000 25 OUTLET
SC_24390 0.0150 0.2000 2.0000 5.0000 25 OUTLET
SC_24391 0.0150 0.2000 2.0000 5.0000 25 OUTLET
SC_24392 0.0150 0.2000 2.0000 5.0000 25 OUTLET
SC_24393 0.0150 0.2000 2.0000 5.0000 25 OUTLET
SC_24394 0.0150 0.2000 2.0000 5.0000 25 OUTLET
SC_24395 0.0150 0.2000 2.0000 5.0000 25 OUTLET
SC_24396 0.0150 0.2000 2.0000 5.0000 25 OUTLET
SC_24397 0.0150 0.2000 2.0000 5.0000 25 OUTLET
SC_24398 0.0150 0.2000 2.0000 5.0000 25 OUTLET
SC_24399 0.0150 0.2000 2.0000 5.0000 25 OUTLET
SC_24400 0.0150 0.2000 2.0000 5.0000 25 OUTLET
SC_24401 0.0150 0.2000 2.0000 5.0000 25 OUTLET
SC_24402 0.0150 0.2000 2.0000 5.0000 25 OUTLET
SC_24668 0.0150 0.2000 2.0000 5.0000 25 OUTLET
SC_24669 0.0150 0.2000 2.0000 5.0000 25 OUTLET
SC_24670 0.0150 0.2000 2.0000 5.0000 25 OUTLET
SC_24671 0.0150 0.2000 2.0000 5.0000 25 OUTLET
SC_24672 0.0150 0.2000 2.0000 5.0000 25 OUTLET
SC_24673 0.0150 0.2000 2.0000 5.0000 25 OUTLET
SC_24674 0.0150 0.2000 2.0000 5.0000 25 OUTLET
SC_24675 0.0150 0.2000 2.0000 5.0000 25 OUTLET
SC_24676 0.0150 0.2000 2.0000 5.0000 25 OUTLET
SC_24677 0.0150 0.2000 2.0000 5.0000 25 OUTLET
SC_24678 0.0150 0.2000 2.0000 5.0000 25 OUTLET
SC_24679 0.0150 0.2000 2.0000 5.0000 25 OUTLET
SC_24680 0.0150 0.2000 2.0000 5.0000 25 OUTLET
SC_24681 0.0150 0.2000 2.0000 5.0000 25 OUTLET
SC_24682 0.0150 0.2000 2.0000 5.0000 25 OUTLET
SC_24683 0.0150 0.2000 2.0000 5.0000 25 OUTLET
SC_24684 0.0150 0.2000 2.0000 5.0000 25 OUTLET
SC_24685 0.0150 0.2000 2.0000 5.0000 25 OUTLET
SC_24692 0.0150 0.2000 2.0000 5.0000 25 OUTLET
SC_24693 0.0150 0.2000 2.0000 5.0000 25 OUTLET
SC_24694 0.0150 0.2000 2.0000 5.0000 25 OUTLET
SC_24695 0.0150 0.2000 2.0000 5.0000 25 OUTLET
SC_24945 0.0150 0.2000 2.0000 5.0000 25 OUTLET
SC_24946 0.0150 0.2000 2.0000 5.0000 25 OUTLET
SC_24947 0.0150 0.2000 2.0000 5.0000 25 OUTLET
SC_24948 0.0150 0.2000 2.0000 5.0000 25 OUTLET
SC_24949 0.0150 0.2000 2.0000 5.0000 25 OUTLET
SC_24950 0.0150 0.2000 2.0000 5.0000 25 OUTLET
SC_24951 0.0150 0.2000 2.0000 5.0000 25 OUTLET
SC_24952 0.0150 0.2000 2.0000 5.0000 25 OUTLET
SC_24953 0.0150 0.2000 2.0000 5.0000 25 OUTLET
SC_24954 0.0150 0.2000 2.0000 5.0000 25 OUTLET
SC_24955 0.0150 0.2000 2.0000 5.0000 25 OUTLET
SC_24956 0.0150 0.2000 2.0000 5.0000 25 OUTLET
SC_24957 0.0150 0.2000 2.0000 5.0000 25 OUTLET
SC_24958 0.0150 0.2000 2.0000 5.0000 25 OUTLET
SC_24959 0.0150 0.2000 2.0000 5.0000 25 OUTLET
SC_24960 0.0150 0.2000 2.0000 5.0000 25 OUTLET
SC_24961 0.0150 0.2000 2.0000 5.0000 25 OUTLET
SC_24962 0.0150 0.2000 2.0000 5.0000 25 OUTLET
SC_24963 0.0150 0.2000 2.0000 5.0000 25 OUTLET
SC_24964 0.0150 0.2000 2.0000 5.0000 25 OUTLET
SC_24965 0.0150 0.2000 2.0000 5.0000 25 OUTLET
SC_24966 0.0150 0.2000 2.0000 5.0000 25 OUTLET
SC_24967 0.0150 0.2000 2.0000 5.0000 25 OUTLET
SC_24968 0.0150 0.2000 2.0000 5.0000 25 OUTLET
SC_24969 0.0150 0.2000 2.0000 5.0000 25 OUTLET
SC_24970 0.0150 0.2000 2.0000 5.0000 25 OUTLET
SC_24971 0.0150 0.2000 2.0000 5.0000 25 OUTLET
SC_24972 0.0150 0.2000 2.0000 5.0000 25 OUTLET
SC_24973 0.0150 0.2000 2.0000 5.0000 25 OUTLET
SC_24974 0.0150 0.2000 2.0000 5.0000 25 OUTLET
SC_25224 0.0150 0.2000 2.0000 5.0000 25 OUTLET
SC_25225 0.0150 0.2000 2.0000 5.0000 25 OUTLET
SC_25226 0.0150 0.2000 2.0000 5.0000 25 OUTLET
SC_25227 0.0150 0.2000 2.0000 5.0000 25 OUTLET
SC_25228 0.0150 0.2000 2.0000 5.0000 25 OUTLET
SC_25229 0.0150 0.2000 2.0000 5.0000 25 OUTLET
SC_25230 0.0150 0.2000 2.0000 5.0000 25 OUTLET
SC_25231 0.0150 0.2000 2.0000 5.0000 25 OUTLET
SC_25232 0.0150 0.2000 2.0000 5.0000 25 OUTLET
SC_25233 0.0150 0.2000 2.0000 5.0000 25 OUTLET
SC_25234 0.0150 0.2000 2.0000 5.0000 25 OUTLET
SC_25235 0.0150 0.2000 2.0000 5.0000 25 OUTLET
SC_25236 0.0150 0.2000 2.0000 5.0000 25 OUTLET
SC_25237 0.0150 0.2000 2.0000 5.0000 25 OUTLET
SC_25238 0.0150 0.2000 2.0000 5.0000 25 OUTLET
SC_25239 0.0150 0.2000 2.0000 5.0000 25 OUTLET
SC_25240 0.0150 0.2000 2.0000 5.0000 25 OUTLET
SC_25241 0.0150 0.2000 2.0000 5.0000 25 OUTLET
SC_25242 0.0150 0.2000 2.0000 5.0000 25 OUTLET
SC_25243 0.0150 0.2000 2.0000 5.0000 25 OUTLET
SC_25244 0.0150 0.2000 2.0000 5.0000 25 OUTLET
SC_25245 0.0150 0.2000 2.0000 5.0000 25 OUTLET
SC_25246 0.0150 0.2000 2.0000 5.0000 25 OUTLET
SC_25247 0.0150 0.2000 2.0000 5.0000 25 OUTLET
SC_25248 0.0150 0.2000 2.0000 5.0000 25 OUTLET
SC_25249 0.0150 0.2000 2.0000 5.0000 25 OUTLET
SC_25250 0.0150 0.2000 2.0000 5.0000 25 OUTLET
SC_25251 0.0150 0.2000 2.0000 5.0000 25 OUTLET
SC_25252 0.0150 0.2000 2.0000 5.0000 25 OUTLET
SC_25253 0.0150 0.2000 2.0000 5.0000 25 OUTLET
SC_25501 0.0150 0.2000 2.0000 5.0000 25 OUTLET
SC_25502 0.0150 0.2000 2.0000 5.0000 25 OUTLET
SC_25503 0.0150 0.2000 2.0000 5.0000 25 OUTLET
SC_25504 0.0150 0.2000 2.0000 5.0000 25 OUTLET
SC_25505 0.0150 0.2000 2.0000 5.0000 25 OUTLET
SC_25506 0.0150 0.2000 2.0000 5.0000 25 OUTLET
SC_25507 0.0150 0.2000 2.0000 5.0000 25 OUTLET
SC_25508 0.0150 0.2000 2.0000 5.0000 25 OUTLET
SC_25509 0.0150 0.2000 2.0000 5.0000 25 OUTLET
SC_25510 0.0150 0.2000 2.0000 5.0000 25 OUTLET
SC_25511 0.0150 0.2000 2.0000 5.0000 25 OUTLET
SC_25512 0.0150 0.2000 2.0000 5.0000 25 OUTLET
SC_25513 0.0150 0.2000 2.0000 5.0000 25 OUTLET
SC_25514 0.0150 0.2000 2.0000 5.0000 25 OUTLET
SC_25515 0.0150 0.2000 2.0000 5.0000 25 OUTLET
SC_25516 0.0150 0.2000 2.0000 5.0000 25 OUTLET
SC_25517 0.0150 0.2000 2.0000 5.0000 25 OUTLET
SC_25518 0.0150 0.2000 2.0000 5.0000 25 OUTLET
SC_25519 0.0150 0.2000 2.0000 5.0000 25 OUTLET
SC_25520 0.0150 0.2000 2.0000 5.0000 25 OUTLET
SC_25521 0.0150 0.2000 2.0000 5.0000 25 OUTLET
SC_25522 0.0150 0.2000 2.0000 5.0000 25 OUTLET
SC_25523 0.0150 0.2000 2.0000 5.0000 25 OUTLET
SC_25524 0.0150 0.2000 2.0000 5.0000 25 OUTLET
SC_25525 0.0150 0.2000 2.0000 5.0000 25 OUTLET
SC_25526 0.0150 0.2000 2.0000 5.0000 25 OUTLET
SC_25527 0.0150 0.2000 2.0000 5.0000 25 OUTLET
SC_25528 0.0150 0.2000 2.0000 5.0000 25 OUTLET
SC_25529 0.0150 0.2000 2.0000 5.0000 25 OUTLET
SC_25530 0.0150 0.2000 2.0000 5.0000 25 OUTLET
SC_25531 0.0150 0.2000 2.0000 5.0000 25 OUTLET
SC_25532 0.0150 0.2000 2.0000 5.0000 25 OUTLET
SC_25778 0.0150 0.2000 2.0000 5.0000 25 OUTLET
SC_25779 0.0150 0.2000 2.0000 5.0000 25 OUTLET
SC_25780 0.0150 0.2000 2.0000 5.0000 25 OUTLET
SC_25781 0.0150 0.2000 2.0000 5.0000 25 OUTLET
SC_25782 0.0150 0.2000 2.0000 5.0000 25 OUTLET
SC_25783 0.0150 0.2000 2.0000 5.0000 25 OUTLET
SC_25784 0.0150 0.2000 2.0000 5.0000 25 OUTLET
SC_25785 0.0150 0.2000 2.0000 5.0000 25 OUTLET
SC_25786 0.0150 0.2000 2.0000 5.0000 25 OUTLET
SC_25787 0.0150 0.2000 2.0000 5.0000 25 OUTLET
SC_25788 0.0150 0.2000 2.0000 5.0000 25 OUTLET
SC_25789 0.0150 0.2000 2.0000 5.0000 25 OUTLET
SC_25790 0.0150 0.2000 2.0000 5.0000 25 OUTLET
SC_25791 0.0150 0.2000 2.0000 5.0000 25 OUTLET
SC_25792 0.0150 0.2000 2.0000 5.0000 25 OUTLET
SC_25793 0.0150 0.2000 2.0000 5.0000 25 OUTLET
SC_25794 0.0150 0.2000 2.0000 5.0000 25 OUTLET
SC_25795 0.0150 0.2000 2.0000 5.0000 25 OUTLET
SC_25796 0.0150 0.2000 2.0000 5.0000 25 OUTLET
SC_25797 0.0150 0.2000 2.0000 5.0000 25 OUTLET
SC_25798 0.0150 0.2000 2.0000 5.0000 25 OUTLET
SC_25799 0.0150 0.2000 2.0000 5.0000 25 OUTLET
SC_25800 0.0150 0.2000 2.0000 5.0000 25 OUTLET
SC_25801 0.0150 0.2000 2.0000 5.0000 25 OUTLET
SC_25802 0.0150 0.2000 2.0000 5.0000 25 OUTLET
SC_25803 0.0150 0.2000 2.0000 5.0000 25 OUTLET
SC_25804 0.0150 0.2000 2.0000 5.0000 25 OUTLET
SC_25805 0.0150 0.2000 2.0000 5.0000 25 OUTLET
SC_25806 0.0150 0.2000 2.0000 5.0000 25 OUTLET
SC_25807 0.0150 0.2000 2.0000 5.0000 25 OUTLET
SC_25808 0.0150 0.2000 2.0000 5.0000 25 OUTLET
SC_25809 0.0150 0.2000 2.0000 5.0000 25 OUTLET
SC_25810 0.0150 0.2000 2.0000 5.0000 25 OUTLET
SC_26054 0.0150 0.2000 2.0000 5.0000 25 OUTLET
SC_26055 0.0150 0.2000 2.0000 5.0000 25 OUTLET
SC_26057 0.0150 0.2000 2.0000 5.0000 25 OUTLET
SC_26058 0.0150 0.2000 2.0000 5.0000 25 OUTLET
SC_26059 0.0150 0.2000 2.0000 5.0000 25 OUTLET
SC_26060 0.0150 0.2000 2.0000 5.0000 25 OUTLET
SC_26061 0.0150 0.2000 2.0000 5.0000 25 OUTLET
SC_26062 0.0150 0.2000 2.0000 5.0000 25 OUTLET
SC_26063 0.0150 0.2000 2.0000 5.0000 25 OUTLET
SC_26064 0.0150 0.2000 2.0000 5.0000 25 OUTLET
SC_26065 0.0150 0.2000 2.0000 5.0000 25 OUTLET
SC_26066 0.0150 0.2000 2.0000 5.0000 25 OUTLET
SC_26067 0.0150 0.2000 2.0000 5.0000 25 OUTLET
SC_26068 0.0150 0.2000 2.0000 5.0000 25 OUTLET
SC_26069 0.0150 0.2000 2.0000 5.0000 25 OUTLET
SC_26070 0.0150 0.2000 2.0000 5.0000 25 OUTLET
SC_26071 0.0150 0.2000 2.0000 5.0000 25 OUTLET
SC_26072 0.0150 0.2000 2.0000 5.0000 25 OUTLET
SC_26073 0.0150 0.2000 2.0000 5.0000 25 OUTLET
SC_26074 0.0150 0.2000 2.0000 5.0000 25 OUTLET
SC_26075 0.0150 0.2000 2.0000 5.0000 25 OUTLET
SC_26076 0.0150 0.2000 2.0000 5.0000 25 OUTLET
SC_26077 0.0150 0.2000 2.0000 5.0000 25 OUTLET
SC_26078 0.0150 0.2000 2.0000 5.0000 25 OUTLET
SC_26079 0.0150 0.2000 2.0000 5.0000 25 OUTLET
SC_26080 0.0150 0.2000 2.0000 5.0000 25 OUTLET
SC_26081 0.0150 0.2000 2.0000 5.0000 25 OUTLET
SC_26082 0.0150 0.2000 2.0000 5.0000 25 OUTLET
SC_26083 0.0150 0.2000 2.0000 5.0000 25 OUTLET
SC_26084 0.0150 0.2000 2.0000 5.0000 25 OUTLET
SC_26085 0.0150 0.2000 2.0000 5.0000 25 OUTLET
SC_26086 0.0150 0.2000 2.0000 5.0000 25 OUTLET
SC_26087 0.0150 0.2000 2.0000 5.0000 25 OUTLET
SC_26336 0.0150 0.2000 2.0000 5.0000 25 OUTLET
SC_26337 0.0150 0.2000 2.0000 5.0000 25 OUTLET
SC_26338 0.0150 0.2000 2.0000 5.0000 25 OUTLET
SC_26339 0.0150 0.2000 2.0000 5.0000 25 OUTLET
SC_26340 0.0150 0.2000 2.0000 5.0000 25 OUTLET
SC_26341 0.0150 0.2000 2.0000 5.0000 25 OUTLET
SC_26342 0.0150 0.2000 2.0000 5.0000 25 OUTLET
SC_26343 0.0150 0.2000 2.0000 5.0000 25 OUTLET
SC_26344 0.0150 0.2000 2.0000 5.0000 25 OUTLET
SC_26345 0.0150 0.2000 2.0000 5.0000 25 OUTLET
SC_26346 0.0150 0.2000 2.0000 5.0000 25 OUTLET
SC_26347 0.0150 0.2000 2.0000 5.0000 25 OUTLET
SC_26348 0.0150 0.2000 2.0000 5.0000 25 OUTLET
SC_26349 0.0150 0.2000 2.0000 5.0000 25 OUTLET
SC_26350 0.0150 0.2000 2.0000 5.0000 25 OUTLET
SC_26351 0.0150 0.2000 2.0000 5.0000 25 OUTLET
SC_26352 0.0150 0.2000 2.0000 5.0000 25 OUTLET
SC_26353 0.0150 0.2000 2.0000 5.0000 25 OUTLET
SC_26354 0.0150 0.2000 2.0000 5.0000 25 OUTLET
SC_26355 0.0150 0.2000 2.0000 5.0000 25 OUTLET
SC_26356 0.0150 0.2000 2.0000 5.0000 25 OUTLET
SC_26357 0.0150 0.2000 2.0000 5.0000 25 OUTLET
SC_26358 0.0150 0.2000 2.0000 5.0000 25 OUTLET
SC_26359 0.0150 0.2000 2.0000 5.0000 25 OUTLET
SC_26360 0.0150 0.2000 2.0000 5.0000 25 OUTLET
SC_26361 0.0150 0.2000 2.0000 5.0000 25 OUTLET
SC_26362 0.0150 0.2000 2.0000 5.0000 25 OUTLET
SC_26363 0.0150 0.2000 2.0000 5.0000 25 OUTLET
SC_26364 0.0150 0.2000 2.0000 5.0000 25 OUTLET
SC_26368 0.0150 0.2000 2.0000 5.0000 25 OUTLET
SC_26369 0.0150 0.2000 2.0000 5.0000 25 OUTLET
SC_26370 0.0150 0.2000 2.0000 5.0000 25 OUTLET
SC_26613 0.0150 0.2000 2.0000 5.0000 25 OUTLET
SC_26614 0.0150 0.2000 2.0000 5.0000 25 OUTLET
SC_26615 0.0150 0.2000 2.0000 5.0000 25 OUTLET
SC_26616 0.0150 0.2000 2.0000 5.0000 25 OUTLET
SC_26617 0.0150 0.2000 2.0000 5.0000 25 OUTLET
SC_26618 0.0150 0.2000 2.0000 5.0000 25 OUTLET
SC_26619 0.0150 0.2000 2.0000 5.0000 25 OUTLET
SC_26620 0.0150 0.2000 2.0000 5.0000 25 OUTLET
SC_26621 0.0150 0.2000 2.0000 5.0000 25 OUTLET
SC_26622 0.0150 0.2000 2.0000 5.0000 25 OUTLET
SC_26623 0.0150 0.2000 2.0000 5.0000 25 OUTLET
SC_26624 0.0150 0.2000 2.0000 5.0000 25 OUTLET
SC_26625 0.0150 0.2000 2.0000 5.0000 25 OUTLET
SC_26626 0.0150 0.2000 2.0000 5.0000 25 OUTLET
SC_26627 0.0150 0.2000 2.0000 5.0000 25 OUTLET
SC_26628 0.0150 0.2000 2.0000 5.0000 25 OUTLET
SC_26629 0.0150 0.2000 2.0000 5.0000 25 OUTLET
SC_26630 0.0150 0.2000 2.0000 5.0000 25 OUTLET
SC_26631 0.0150 0.2000 2.0000 5.0000 25 OUTLET
SC_26632 0.0150 0.2000 2.0000 5.0000 25 OUTLET
SC_26633 0.0150 0.2000 2.0000 5.0000 25 OUTLET
SC_26634 0.0150 0.2000 2.0000 5.0000 25 OUTLET
SC_26635 0.0150 0.2000 2.0000 5.0000 25 OUTLET
SC_26636 0.0150 0.2000 2.0000 5.0000 25 OUTLET
SC_26637 0.0150 0.2000 2.0000 5.0000 25 OUTLET
SC_26638 0.0150 0.2000 2.0000 5.0000 25 OUTLET
SC_26639 0.0150 0.2000 2.0000 5.0000 25 OUTLET
SC_26640 0.0150 0.2000 2.0000 5.0000 25 OUTLET
SC_26641 0.0150 0.2000 2.0000 5.0000 25 OUTLET
SC_26642 0.0150 0.2000 2.0000 5.0000 25 OUTLET
SC_26643 0.0150 0.2000 2.0000 5.0000 25 OUTLET
SC_26644 0.0150 0.2000 2.0000 5.0000 25 OUTLET
SC_26645 0.0150 0.2000 2.0000 5.0000 25 OUTLET
SC_26646 0.0150 0.2000 2.0000 5.0000 25 OUTLET
SC_26647 0.0150 0.2000 2.0000 5.0000 25 OUTLET
SC_26648 0.0150 0.2000 2.0000 5.0000 25 OUTLET
SC_26649 0.0150 0.2000 2.0000 5.0000 25 OUTLET
SC_26650 0.0150 0.2000 2.0000 5.0000 25 OUTLET
SC_26651 0.0150 0.2000 2.0000 5.0000 25 OUTLET
SC_26652 0.0150 0.2000 2.0000 5.0000 25 OUTLET
SC_26653 0.0150 0.2000 2.0000 5.0000 25 OUTLET
SC_26654 0.0150 0.2000 2.0000 5.0000 25 OUTLET
SC_26655 0.0150 0.2000 2.0000 5.0000 25 OUTLET
SC_26656 0.0150 0.2000 2.0000 5.0000 25 OUTLET
SC_26657 0.0150 0.2000 2.0000 5.0000 25 OUTLET
SC_26658 0.0150 0.2000 2.0000 5.0000 25 OUTLET
SC_26664 0.0150 0.2000 2.0000 5.0000 25 OUTLET
SC_26888 0.0150 0.2000 2.0000 5.0000 25 OUTLET
SC_26889 0.0150 0.2000 2.0000 5.0000 25 OUTLET
SC_26890 0.0150 0.2000 2.0000 5.0000 25 OUTLET
SC_26891 0.0150 0.2000 2.0000 5.0000 25 OUTLET
SC_26892 0.0150 0.2000 2.0000 5.0000 25 OUTLET
SC_26893 0.0150 0.2000 2.0000 5.0000 25 OUTLET
SC_26894 0.0150 0.2000 2.0000 5.0000 25 OUTLET
SC_26895 0.0150 0.2000 2.0000 5.0000 25 OUTLET
SC_26896 0.0150 0.2000 2.0000 5.0000 25 OUTLET
SC_26897 0.0150 0.2000 2.0000 5.0000 25 OUTLET
SC_26898 0.0150 0.2000 2.0000 5.0000 25 OUTLET
SC_26899 0.0150 0.2000 2.0000 5.0000 25 OUTLET
SC_26900 0.0150 0.2000 2.0000 5.0000 25 OUTLET
SC_26901 0.0150 0.2000 2.0000 5.0000 25 OUTLET
SC_26902 0.0150 0.2000 2.0000 5.0000 25 OUTLET
SC_26903 0.0150 0.2000 2.0000 5.0000 25 OUTLET
SC_26904 0.0150 0.2000 2.0000 5.0000 25 OUTLET
SC_26905 0.0150 0.2000 2.0000 5.0000 25 OUTLET
SC_26906 0.0150 0.2000 2.0000 5.0000 25 OUTLET
SC_26907 0.0150 0.2000 2.0000 5.0000 25 OUTLET
SC_26908 0.0150 0.2000 2.0000 5.0000 25 OUTLET
SC_26909 0.0150 0.2000 2.0000 5.0000 25 OUTLET
SC_26910 0.0150 0.2000 2.0000 5.0000 25 OUTLET
SC_26911 0.0150 0.2000 2.0000 5.0000 25 OUTLET
SC_26912 0.0150 0.2000 2.0000 5.0000 25 OUTLET
SC_26913 0.0150 0.2000 2.0000 5.0000 25 OUTLET
SC_26914 0.0150 0.2000 2.0000 5.0000 25 OUTLET
SC_26915 0.0150 0.2000 2.0000 5.0000 25 OUTLET
SC_26916 0.0150 0.2000 2.0000 5.0000 25 OUTLET
SC_26917 0.0150 0.2000 2.0000 5.0000 25 OUTLET
SC_26918 0.0150 0.2000 2.0000 5.0000 25 OUTLET
SC_26919 0.0150 0.2000 2.0000 5.0000 25 OUTLET
SC_26920 0.0150 0.2000 2.0000 5.0000 25 OUTLET
SC_26921 0.0150 0.2000 2.0000 5.0000 25 OUTLET
SC_26922 0.0150 0.2000 2.0000 5.0000 25 OUTLET
SC_26923 0.0150 0.2000 2.0000 5.0000 25 OUTLET
SC_26924 0.0150 0.2000 2.0000 5.0000 25 OUTLET
SC_26925 0.0150 0.2000 2.0000 5.0000 25 OUTLET
SC_26926 0.0150 0.2000 2.0000 5.0000 25 OUTLET
SC_26927 0.0150 0.2000 2.0000 5.0000 25 OUTLET
SC_26928 0.0150 0.2000 2.0000 5.0000 25 OUTLET
SC_26929 0.0150 0.2000 2.0000 5.0000 25 OUTLET
SC_26930 0.0150 0.2000 2.0000 5.0000 25 OUTLET
SC_26931 0.0150 0.2000 2.0000 5.0000 25 OUTLET
SC_26932 0.0150 0.2000 2.0000 5.0000 25 OUTLET
SC_26933 0.0150 0.2000 2.0000 5.0000 25 OUTLET
SC_26934 0.0150 0.2000 2.0000 5.0000 25 OUTLET
SC_26939 0.0150 0.2000 2.0000 5.0000 25 OUTLET
SC_26940 0.0150 0.2000 2.0000 5.0000 25 OUTLET
SC_26941 0.0150 0.2000 2.0000 5.0000 25 OUTLET
SC_27163 0.0150 0.2000 2.0000 5.0000 25 OUTLET
SC_27164 0.0150 0.2000 2.0000 5.0000 25 OUTLET
SC_27165 0.0150 0.2000 2.0000 5.0000 25 OUTLET
SC_27166 0.0150 0.2000 2.0000 5.0000 25 OUTLET
SC_27167 0.0150 0.2000 2.0000 5.0000 25 OUTLET
SC_27168 0.0150 0.2000 2.0000 5.0000 25 OUTLET
SC_27169 0.0150 0.2000 2.0000 5.0000 25 OUTLET
SC_27170 0.0150 0.2000 2.0000 5.0000 25 OUTLET
SC_27171 0.0150 0.2000 2.0000 5.0000 25 OUTLET
SC_27172 0.0150 0.2000 2.0000 5.0000 25 OUTLET
SC_27173 0.0150 0.2000 2.0000 5.0000 25 OUTLET
SC_27174 0.0150 0.2000 2.0000 5.0000 25 OUTLET
SC_27175 0.0150 0.2000 2.0000 5.0000 25 OUTLET
SC_27176 0.0150 0.2000 2.0000 5.0000 25 OUTLET
SC_27177 0.0150 0.2000 2.0000 5.0000 25 OUTLET
SC_27178 0.0150 0.2000 2.0000 5.0000 25 OUTLET
SC_27179 0.0150 0.2000 2.0000 5.0000 25 OUTLET
SC_27180 0.0150 0.2000 2.0000 5.0000 25 OUTLET
SC_27181 0.0150 0.2000 2.0000 5.0000 25 OUTLET
SC_27182 0.0150 0.2000 2.0000 5.0000 25 OUTLET
SC_27183 0.0150 0.2000 2.0000 5.0000 25 OUTLET
SC_27184 0.0150 0.2000 2.0000 5.0000 25 OUTLET
SC_27185 0.0150 0.2000 2.0000 5.0000 25 OUTLET
SC_27186 0.0150 0.2000 2.0000 5.0000 25 OUTLET
SC_27187 0.0150 0.2000 2.0000 5.0000 25 OUTLET
SC_27188 0.0150 0.2000 2.0000 5.0000 25 OUTLET
SC_27189 0.0150 0.2000 2.0000 5.0000 25 OUTLET
SC_27190 0.0150 0.2000 2.0000 5.0000 25 OUTLET
SC_27191 0.0150 0.2000 2.0000 5.0000 25 OUTLET
SC_27192 0.0150 0.2000 2.0000 5.0000 25 OUTLET
SC_27193 0.0150 0.2000 2.0000 5.0000 25 OUTLET
SC_27194 0.0150 0.2000 2.0000 5.0000 25 OUTLET
SC_27195 0.0150 0.2000 2.0000 5.0000 25 OUTLET
SC_27196 0.0150 0.2000 2.0000 5.0000 25 OUTLET
SC_27197 0.0150 0.2000 2.0000 5.0000 25 OUTLET
SC_27198 0.0150 0.2000 2.0000 5.0000 25 OUTLET
SC_27199 0.0150 0.2000 2.0000 5.0000 25 OUTLET
SC_27200 0.0150 0.2000 2.0000 5.0000 25 OUTLET
SC_27201 0.0150 0.2000 2.0000 5.0000 25 OUTLET
SC_27202 0.0150 0.2000 2.0000 5.0000 25 OUTLET
SC_27203 0.0150 0.2000 2.0000 5.0000 25 OUTLET
SC_27204 0.0150 0.2000 2.0000 5.0000 25 OUTLET
SC_27205 0.0150 0.2000 2.0000 5.0000 25 OUTLET
SC_27206 0.0150 0.2000 2.0000 5.0000 25 OUTLET
SC_27207 0.0150 0.2000 2.0000 5.0000 25 OUTLET
SC_27208 0.0150 0.2000 2.0000 5.0000 25 OUTLET
SC_27209 0.0150 0.2000 2.0000 5.0000 25 OUTLET
SC_27212 0.0150 0.2000 2.0000 5.0000 25 OUTLET
SC_27213 0.0150 0.2000 2.0000 5.0000 25 OUTLET
SC_27214 0.0150 0.2000 2.0000 5.0000 25 OUTLET
SC_27215 0.0150 0.2000 2.0000 5.0000 25 OUTLET
SC_27216 0.0150 0.2000 2.0000 5.0000 25 OUTLET
SC_27217 0.0150 0.2000 2.0000 5.0000 25 OUTLET
SC_27436 0.0150 0.2000 2.0000 5.0000 25 OUTLET
SC_27437 0.0150 0.2000 2.0000 5.0000 25 OUTLET
SC_27438 0.0150 0.2000 2.0000 5.0000 25 OUTLET
SC_27439 0.0150 0.2000 2.0000 5.0000 25 OUTLET
SC_27440 0.0150 0.2000 2.0000 5.0000 25 OUTLET
SC_27441 0.0150 0.2000 2.0000 5.0000 25 OUTLET
SC_27442 0.0150 0.2000 2.0000 5.0000 25 OUTLET
SC_27443 0.0150 0.2000 2.0000 5.0000 25 OUTLET
SC_27444 0.0150 0.2000 2.0000 5.0000 25 OUTLET
SC_27445 0.0150 0.2000 2.0000 5.0000 25 OUTLET
SC_27446 0.0150 0.2000 2.0000 5.0000 25 OUTLET
SC_27447 0.0150 0.2000 2.0000 5.0000 25 OUTLET
SC_27448 0.0150 0.2000 2.0000 5.0000 25 OUTLET
SC_27449 0.0150 0.2000 2.0000 5.0000 25 OUTLET
SC_27450 0.0150 0.2000 2.0000 5.0000 25 OUTLET
SC_27451 0.0150 0.2000 2.0000 5.0000 25 OUTLET
SC_27452 0.0150 0.2000 2.0000 5.0000 25 OUTLET
SC_27453 0.0150 0.2000 2.0000 5.0000 25 OUTLET
SC_27454 0.0150 0.2000 2.0000 5.0000 25 OUTLET
SC_27455 0.0150 0.2000 2.0000 5.0000 25 OUTLET
SC_27456 0.0150 0.2000 2.0000 5.0000 25 OUTLET
SC_27457 0.0150 0.2000 2.0000 5.0000 25 OUTLET
SC_27458 0.0150 0.2000 2.0000 5.0000 25 OUTLET
SC_27459 0.0150 0.2000 2.0000 5.0000 25 OUTLET
SC_27460 0.0150 0.2000 2.0000 5.0000 25 OUTLET
SC_27461 0.0150 0.2000 2.0000 5.0000 25 OUTLET
SC_27462 0.0150 0.2000 2.0000 5.0000 25 OUTLET
SC_27463 0.0150 0.2000 2.0000 5.0000 25 OUTLET
SC_27464 0.0150 0.2000 2.0000 5.0000 25 OUTLET
SC_27465 0.0150 0.2000 2.0000 5.0000 25 OUTLET
SC_27466 0.0150 0.2000 2.0000 5.0000 25 OUTLET
SC_27467 0.0150 0.2000 2.0000 5.0000 25 OUTLET
SC_27468 0.0150 0.2000 2.0000 5.0000 25 OUTLET
SC_27469 0.0150 0.2000 2.0000 5.0000 25 OUTLET
SC_27470 0.0150 0.2000 2.0000 5.0000 25 OUTLET
SC_27471 0.0150 0.2000 2.0000 5.0000 25 OUTLET
SC_27472 0.0150 0.2000 2.0000 5.0000 25 OUTLET
SC_27473 0.0150 0.2000 2.0000 5.0000 25 OUTLET
SC_27474 0.0150 0.2000 2.0000 5.0000 25 OUTLET
SC_27475 0.0150 0.2000 2.0000 5.0000 25 OUTLET
SC_27476 0.0150 0.2000 2.0000 5.0000 25 OUTLET
SC_27477 0.0150 0.2000 2.0000 5.0000 25 OUTLET
SC_27478 0.0150 0.2000 2.0000 5.0000 25 OUTLET
SC_27479 0.0150 0.2000 2.0000 5.0000 25 OUTLET
SC_27480 0.0150 0.2000 2.0000 5.0000 25 OUTLET
SC_27481 0.0150 0.2000 2.0000 5.0000 25 OUTLET
SC_27482 0.0150 0.2000 2.0000 5.0000 25 OUTLET
SC_27483 0.0150 0.2000 2.0000 5.0000 25 OUTLET
SC_27484 0.0150 0.2000 2.0000 5.0000 25 OUTLET
SC_27485 0.0150 0.2000 2.0000 5.0000 25 OUTLET
SC_27486 0.0150 0.2000 2.0000 5.0000 25 OUTLET
SC_27487 0.0150 0.2000 2.0000 5.0000 25 OUTLET
SC_27488 0.0150 0.2000 2.0000 5.0000 25 OUTLET
SC_27489 0.0150 0.2000 2.0000 5.0000 25 OUTLET
SC_27490 0.0150 0.2000 2.0000 5.0000 25 OUTLET
SC_27709 0.0150 0.2000 2.0000 5.0000 25 OUTLET
SC_27710 0.0150 0.2000 2.0000 5.0000 25 OUTLET
SC_27711 0.0150 0.2000 2.0000 5.0000 25 OUTLET
SC_27712 0.0150 0.2000 2.0000 5.0000 25 OUTLET
SC_27713 0.0150 0.2000 2.0000 5.0000 25 OUTLET
SC_27714 0.0150 0.2000 2.0000 5.0000 25 OUTLET
SC_27715 0.0150 0.2000 2.0000 5.0000 25 OUTLET
SC_27716 0.0150 0.2000 2.0000 5.0000 25 OUTLET
SC_27717 0.0150 0.2000 2.0000 5.0000 25 OUTLET
SC_27718 0.0150 0.2000 2.0000 5.0000 25 OUTLET
SC_27719 0.0150 0.2000 2.0000 5.0000 25 OUTLET
SC_27720 0.0150 0.2000 2.0000 5.0000 25 OUTLET
SC_27721 0.0150 0.2000 2.0000 5.0000 25 OUTLET
SC_27722 0.0150 0.2000 2.0000 5.0000 25 OUTLET
SC_27723 0.0150 0.2000 2.0000 5.0000 25 OUTLET
SC_27724 0.0150 0.2000 2.0000 5.0000 25 OUTLET
SC_27725 0.0150 0.2000 2.0000 5.0000 25 OUTLET
SC_27726 0.0150 0.2000 2.0000 5.0000 25 OUTLET
SC_27727 0.0150 0.2000 2.0000 5.0000 25 OUTLET
SC_27728 0.0150 0.2000 2.0000 5.0000 25 OUTLET
SC_27729 0.0150 0.2000 2.0000 5.0000 25 OUTLET
SC_27730 0.0150 0.2000 2.0000 5.0000 25 OUTLET
SC_27731 0.0150 0.2000 2.0000 5.0000 25 OUTLET
SC_27732 0.0150 0.2000 2.0000 5.0000 25 OUTLET
SC_27733 0.0150 0.2000 2.0000 5.0000 25 OUTLET
SC_27734 0.0150 0.2000 2.0000 5.0000 25 OUTLET
SC_27735 0.0150 0.2000 2.0000 5.0000 25 OUTLET
SC_27736 0.0150 0.2000 2.0000 5.0000 25 OUTLET
SC_27737 0.0150 0.2000 2.0000 5.0000 25 OUTLET
SC_27738 0.0150 0.2000 2.0000 5.0000 25 OUTLET
SC_27739 0.0150 0.2000 2.0000 5.0000 25 OUTLET
SC_27740 0.0150 0.2000 2.0000 5.0000 25 OUTLET
SC_27741 0.0150 0.2000 2.0000 5.0000 25 OUTLET
SC_27742 0.0150 0.2000 2.0000 5.0000 25 OUTLET
SC_27743 0.0150 0.2000 2.0000 5.0000 25 OUTLET
SC_27744 0.0150 0.2000 2.0000 5.0000 25 OUTLET
SC_27745 0.0150 0.2000 2.0000 5.0000 25 OUTLET
SC_27746 0.0150 0.2000 2.0000 5.0000 25 OUTLET
SC_27747 0.0150 0.2000 2.0000 5.0000 25 OUTLET
SC_27748 0.0150 0.2000 2.0000 5.0000 25 OUTLET
SC_27749 0.0150 0.2000 2.0000 5.0000 25 OUTLET
SC_27750 0.0150 0.2000 2.0000 5.0000 25 OUTLET
SC_27751 0.0150 0.2000 2.0000 5.0000 25 OUTLET
SC_27752 0.0150 0.2000 2.0000 5.0000 25 OUTLET
SC_27753 0.0150 0.2000 2.0000 5.0000 25 OUTLET
SC_27754 0.0150 0.2000 2.0000 5.0000 25 OUTLET
SC_27755 0.0150 0.2000 2.0000 5.0000 25 OUTLET
SC_27756 0.0150 0.2000 2.0000 5.0000 25 OUTLET
SC_27757 0.0150 0.2000 2.0000 5.0000 25 OUTLET
SC_27758 0.0150 0.2000 2.0000 5.0000 25 OUTLET
SC_27759 0.0150 0.2000 2.0000 5.0000 25 OUTLET
SC_27760 0.0150 0.2000 2.0000 5.0000 25 OUTLET
SC_27761 0.0150 0.2000 2.0000 5.0000 25 OUTLET
SC_27981 0.0150 0.2000 2.0000 5.0000 25 OUTLET
SC_27982 0.0150 0.2000 2.0000 5.0000 25 OUTLET
SC_27983 0.0150 0.2000 2.0000 5.0000 25 OUTLET
SC_27984 0.0150 0.2000 2.0000 5.0000 25 OUTLET
SC_27985 0.0150 0.2000 2.0000 5.0000 25 OUTLET
SC_27986 0.0150 0.2000 2.0000 5.0000 25 OUTLET
SC_27987 0.0150 0.2000 2.0000 5.0000 25 OUTLET
SC_27988 0.0150 0.2000 2.0000 5.0000 25 OUTLET
SC_27989 0.0150 0.2000 2.0000 5.0000 25 OUTLET
SC_27990 0.0150 0.2000 2.0000 5.0000 25 OUTLET
SC_27991 0.0150 0.2000 2.0000 5.0000 25 OUTLET
SC_27992 0.0150 0.2000 2.0000 5.0000 25 OUTLET
SC_27993 0.0150 0.2000 2.0000 5.0000 25 OUTLET
SC_27994 0.0150 0.2000 2.0000 5.0000 25 OUTLET
SC_27995 0.0150 0.2000 2.0000 5.0000 25 OUTLET
SC_27996 0.0150 0.2000 2.0000 5.0000 25 OUTLET
SC_27997 0.0150 0.2000 2.0000 5.0000 25 OUTLET
SC_27998 0.0150 0.2000 2.0000 5.0000 25 OUTLET
SC_27999 0.0150 0.2000 2.0000 5.0000 25 OUTLET
SC_28000 0.0150 0.2000 2.0000 5.0000 25 OUTLET
SC_28001 0.0150 0.2000 2.0000 5.0000 25 OUTLET
SC_28002 0.0150 0.2000 2.0000 5.0000 25 OUTLET
SC_28003 0.0150 0.2000 2.0000 5.0000 25 OUTLET
SC_28004 0.0150 0.2000 2.0000 5.0000 25 OUTLET
SC_28005 0.0150 0.2000 2.0000 5.0000 25 OUTLET
SC_28006 0.0150 0.2000 2.0000 5.0000 25 OUTLET
SC_28007 0.0150 0.2000 2.0000 5.0000 25 OUTLET
SC_28008 0.0150 0.2000 2.0000 5.0000 25 OUTLET
SC_28009 0.0150 0.2000 2.0000 5.0000 25 OUTLET
SC_28010 0.0150 0.2000 2.0000 5.0000 25 OUTLET
SC_28011 0.0150 0.2000 2.0000 5.0000 25 OUTLET
SC_28012 0.0150 0.2000 2.0000 5.0000 25 OUTLET
SC_28013 0.0150 0.2000 2.0000 5.0000 25 OUTLET
SC_28014 0.0150 0.2000 2.0000 5.0000 25 OUTLET
SC_28015 0.0150 0.2000 2.0000 5.0000 25 OUTLET
SC_28016 0.0150 0.2000 2.0000 5.0000 25 OUTLET
SC_28017 0.0150 0.2000 2.0000 5.0000 25 OUTLET
SC_28018 0.0150 0.2000 2.0000 5.0000 25 OUTLET
SC_28019 0.0150 0.2000 2.0000 5.0000 25 OUTLET
SC_28020 0.0150 0.2000 2.0000 5.0000 25 OUTLET
SC_28021 0.0150 0.2000 2.0000 5.0000 25 OUTLET
SC_28022 0.0150 0.2000 2.0000 5.0000 25 OUTLET
SC_28023 0.0150 0.2000 2.0000 5.0000 25 OUTLET
SC_28024 0.0150 0.2000 2.0000 5.0000 25 OUTLET
SC_28025 0.0150 0.2000 2.0000 5.0000 25 OUTLET
SC_28026 0.0150 0.2000 2.0000 5.0000 25 OUTLET
SC_28027 0.0150 0.2000 2.0000 5.0000 25 OUTLET
SC_28028 0.0150 0.2000 2.0000 5.0000 25 OUTLET
SC_28029 0.0150 0.2000 2.0000 5.0000 25 OUTLET
SC_28030 0.0150 0.2000 2.0000 5.0000 25 OUTLET
SC_28031 0.0150 0.2000 2.0000 5.0000 25 OUTLET
SC_28032 0.0150 0.2000 2.0000 5.0000 25 OUTLET
SC_28253 0.0150 0.2000 2.0000 5.0000 25 OUTLET
SC_28254 0.0150 0.2000 2.0000 5.0000 25 OUTLET
SC_28255 0.0150 0.2000 2.0000 5.0000 25 OUTLET
SC_28256 0.0150 0.2000 2.0000 5.0000 25 OUTLET
SC_28257 0.0150 0.2000 2.0000 5.0000 25 OUTLET
SC_28258 0.0150 0.2000 2.0000 5.0000 25 OUTLET
SC_28259 0.0150 0.2000 2.0000 5.0000 25 OUTLET
SC_28260 0.0150 0.2000 2.0000 5.0000 25 OUTLET
SC_28261 0.0150 0.2000 2.0000 5.0000 25 OUTLET
SC_28262 0.0150 0.2000 2.0000 5.0000 25 OUTLET
SC_28263 0.0150 0.2000 2.0000 5.0000 25 OUTLET
SC_28264 0.0150 0.2000 2.0000 5.0000 25 OUTLET
SC_28265 0.0150 0.2000 2.0000 5.0000 25 OUTLET
SC_28266 0.0150 0.2000 2.0000 5.0000 25 OUTLET
SC_28267 0.0150 0.2000 2.0000 5.0000 25 OUTLET
SC_28268 0.0150 0.2000 2.0000 5.0000 25 OUTLET
SC_28269 0.0150 0.2000 2.0000 5.0000 25 OUTLET
SC_28270 0.0150 0.2000 2.0000 5.0000 25 OUTLET
SC_28271 0.0150 0.2000 2.0000 5.0000 25 OUTLET
SC_28272 0.0150 0.2000 2.0000 5.0000 25 OUTLET
SC_28273 0.0150 0.2000 2.0000 5.0000 25 OUTLET
SC_28274 0.0150 0.2000 2.0000 5.0000 25 OUTLET
SC_28275 0.0150 0.2000 2.0000 5.0000 25 OUTLET
SC_28276 0.0150 0.2000 2.0000 5.0000 25 OUTLET
SC_28277 0.0150 0.2000 2.0000 5.0000 25 OUTLET
SC_28278 0.0150 0.2000 2.0000 5.0000 25 OUTLET
SC_28279 0.0150 0.2000 2.0000 5.0000 25 OUTLET
SC_28280 0.0150 0.2000 2.0000 5.0000 25 OUTLET
SC_28281 0.0150 0.2000 2.0000 5.0000 25 OUTLET
SC_28282 0.0150 0.2000 2.0000 5.0000 25 OUTLET
SC_28283 0.0150 0.2000 2.0000 5.0000 25 OUTLET
SC_28284 0.0150 0.2000 2.0000 5.0000 25 OUTLET
SC_28285 0.0150 0.2000 2.0000 5.0000 25 OUTLET
SC_28286 0.0150 0.2000 2.0000 5.0000 25 OUTLET
SC_28287 0.0150 0.2000 2.0000 5.0000 25 OUTLET
SC_28288 0.0150 0.2000 2.0000 5.0000 25 OUTLET
SC_28289 0.0150 0.2000 2.0000 5.0000 25 OUTLET
SC_28290 0.0150 0.2000 2.0000 5.0000 25 OUTLET
SC_28291 0.0150 0.2000 2.0000 5.0000 25 OUTLET
SC_28292 0.0150 0.2000 2.0000 5.0000 25 OUTLET
SC_28293 0.0150 0.2000 2.0000 5.0000 25 OUTLET
SC_28294 0.0150 0.2000 2.0000 5.0000 25 OUTLET
SC_28295 0.0150 0.2000 2.0000 5.0000 25 OUTLET
SC_28296 0.0150 0.2000 2.0000 5.0000 25 OUTLET
SC_28297 0.0150 0.2000 2.0000 5.0000 25 OUTLET
SC_28298 0.0150 0.2000 2.0000 5.0000 25 OUTLET
SC_28299 0.0150 0.2000 2.0000 5.0000 25 OUTLET
SC_28300 0.0150 0.2000 2.0000 5.0000 25 OUTLET
SC_28301 0.0150 0.2000 2.0000 5.0000 25 OUTLET
SC_28302 0.0150 0.2000 2.0000 5.0000 25 OUTLET
SC_28303 0.0150 0.2000 2.0000 5.0000 25 OUTLET
SC_28304 0.0150 0.2000 2.0000 5.0000 25 OUTLET
SC_28305 0.0150 0.2000 2.0000 5.0000 25 OUTLET
SC_28331 0.0150 0.2000 2.0000 5.0000 25 OUTLET
SC_28526 0.0150 0.2000 2.0000 5.0000 25 OUTLET
SC_28527 0.0150 0.2000 2.0000 5.0000 25 OUTLET
SC_28528 0.0150 0.2000 2.0000 5.0000 25 OUTLET
SC_28529 0.0150 0.2000 2.0000 5.0000 25 OUTLET
SC_28530 0.0150 0.2000 2.0000 5.0000 25 OUTLET
SC_28531 0.0150 0.2000 2.0000 5.0000 25 OUTLET
SC_28532 0.0150 0.2000 2.0000 5.0000 25 OUTLET
SC_28533 0.0150 0.2000 2.0000 5.0000 25 OUTLET
SC_28534 0.0150 0.2000 2.0000 5.0000 25 OUTLET
SC_28535 0.0150 0.2000 2.0000 5.0000 25 OUTLET
SC_28536 0.0150 0.2000 2.0000 5.0000 25 OUTLET
SC_28537 0.0150 0.2000 2.0000 5.0000 25 OUTLET
SC_28538 0.0150 0.2000 2.0000 5.0000 25 OUTLET
SC_28539 0.0150 0.2000 2.0000 5.0000 25 OUTLET
SC_28540 0.0150 0.2000 2.0000 5.0000 25 OUTLET
SC_28541 0.0150 0.2000 2.0000 5.0000 25 OUTLET
SC_28542 0.0150 0.2000 2.0000 5.0000 25 OUTLET
SC_28543 0.0150 0.2000 2.0000 5.0000 25 OUTLET
SC_28544 0.0150 0.2000 2.0000 5.0000 25 OUTLET
SC_28545 0.0150 0.2000 2.0000 5.0000 25 OUTLET
SC_28546 0.0150 0.2000 2.0000 5.0000 25 OUTLET
SC_28547 0.0150 0.2000 2.0000 5.0000 25 OUTLET
SC_28548 0.0150 0.2000 2.0000 5.0000 25 OUTLET
SC_28549 0.0150 0.2000 2.0000 5.0000 25 OUTLET
SC_28550 0.0150 0.2000 2.0000 5.0000 25 OUTLET
SC_28551 0.0150 0.2000 2.0000 5.0000 25 OUTLET
SC_28552 0.0150 0.2000 2.0000 5.0000 25 OUTLET
SC_28553 0.0150 0.2000 2.0000 5.0000 25 OUTLET
SC_28554 0.0150 0.2000 2.0000 5.0000 25 OUTLET
SC_28555 0.0150 0.2000 2.0000 5.0000 25 OUTLET
SC_28556 0.0150 0.2000 2.0000 5.0000 25 OUTLET
SC_28557 0.0150 0.2000 2.0000 5.0000 25 OUTLET
SC_28558 0.0150 0.2000 2.0000 5.0000 25 OUTLET
SC_28559 0.0150 0.2000 2.0000 5.0000 25 OUTLET
SC_28560 0.0150 0.2000 2.0000 5.0000 25 OUTLET
SC_28561 0.0150 0.2000 2.0000 5.0000 25 OUTLET
SC_28562 0.0150 0.2000 2.0000 5.0000 25 OUTLET
SC_28563 0.0150 0.2000 2.0000 5.0000 25 OUTLET
SC_28564 0.0150 0.2000 2.0000 5.0000 25 OUTLET
SC_28565 0.0150 0.2000 2.0000 5.0000 25 OUTLET
SC_28566 0.0150 0.2000 2.0000 5.0000 25 OUTLET
SC_28567 0.0150 0.2000 2.0000 5.0000 25 OUTLET
SC_28568 0.0150 0.2000 2.0000 5.0000 25 OUTLET
SC_28569 0.0150 0.2000 2.0000 5.0000 25 OUTLET
SC_28570 0.0150 0.2000 2.0000 5.0000 25 OUTLET
SC_28571 0.0150 0.2000 2.0000 5.0000 25 OUTLET
SC_28572 0.0150 0.2000 2.0000 5.0000 25 OUTLET
SC_28573 0.0150 0.2000 2.0000 5.0000 25 OUTLET
SC_28574 0.0150 0.2000 2.0000 5.0000 25 OUTLET
SC_28575 0.0150 0.2000 2.0000 5.0000 25 OUTLET
SC_28576 0.0150 0.2000 2.0000 5.0000 25 OUTLET
SC_28577 0.0150 0.2000 2.0000 5.0000 25 OUTLET
SC_28578 0.0150 0.2000 2.0000 5.0000 25 OUTLET
SC_28584 0.0150 0.2000 2.0000 5.0000 25 OUTLET
SC_28602 0.0150 0.2000 2.0000 5.0000 25 OUTLET
SC_28603 0.0150 0.2000 2.0000 5.0000 25 OUTLET
SC_28801 0.0150 0.2000 2.0000 5.0000 25 OUTLET
SC_28802 0.0150 0.2000 2.0000 5.0000 25 OUTLET
SC_28803 0.0150 0.2000 2.0000 5.0000 25 OUTLET
SC_28804 0.0150 0.2000 2.0000 5.0000 25 OUTLET
SC_28805 0.0150 0.2000 2.0000 5.0000 25 OUTLET
SC_28806 0.0150 0.2000 2.0000 5.0000 25 OUTLET
SC_28807 0.0150 0.2000 2.0000 5.0000 25 OUTLET
SC_28808 0.0150 0.2000 2.0000 5.0000 25 OUTLET
SC_28809 0.0150 0.2000 2.0000 5.0000 25 OUTLET
SC_28810 0.0150 0.2000 2.0000 5.0000 25 OUTLET
SC_28811 0.0150 0.2000 2.0000 5.0000 25 OUTLET
SC_28812 0.0150 0.2000 2.0000 5.0000 25 OUTLET
SC_28813 0.0150 0.2000 2.0000 5.0000 25 OUTLET
SC_28814 0.0150 0.2000 2.0000 5.0000 25 OUTLET
SC_28815 0.0150 0.2000 2.0000 5.0000 25 OUTLET
SC_28816 0.0150 0.2000 2.0000 5.0000 25 OUTLET
SC_28817 0.0150 0.2000 2.0000 5.0000 25 OUTLET
SC_28818 0.0150 0.2000 2.0000 5.0000 25 OUTLET
SC_28819 0.0150 0.2000 2.0000 5.0000 25 OUTLET
SC_28820 0.0150 0.2000 2.0000 5.0000 25 OUTLET
SC_28821 0.0150 0.2000 2.0000 5.0000 25 OUTLET
SC_28822 0.0150 0.2000 2.0000 5.0000 25 OUTLET
SC_28823 0.0150 0.2000 2.0000 5.0000 25 OUTLET
SC_28824 0.0150 0.2000 2.0000 5.0000 25 OUTLET
SC_28825 0.0150 0.2000 2.0000 5.0000 25 OUTLET
SC_28826 0.0150 0.2000 2.0000 5.0000 25 OUTLET
SC_28827 0.0150 0.2000 2.0000 5.0000 25 OUTLET
SC_28828 0.0150 0.2000 2.0000 5.0000 25 OUTLET
SC_28829 0.0150 0.2000 2.0000 5.0000 25 OUTLET
SC_28830 0.0150 0.2000 2.0000 5.0000 25 OUTLET
SC_28831 0.0150 0.2000 2.0000 5.0000 25 OUTLET
SC_28832 0.0150 0.2000 2.0000 5.0000 25 OUTLET
SC_28833 0.0150 0.2000 2.0000 5.0000 25 OUTLET
SC_28834 0.0150 0.2000 2.0000 5.0000 25 OUTLET
SC_28835 0.0150 0.2000 2.0000 5.0000 25 OUTLET
SC_28836 0.0150 0.2000 2.0000 5.0000 25 OUTLET
SC_28837 0.0150 0.2000 2.0000 5.0000 25 OUTLET
SC_28838 0.0150 0.2000 2.0000 5.0000 25 OUTLET
SC_28839 0.0150 0.2000 2.0000 5.0000 25 OUTLET
SC_28840 0.0150 0.2000 2.0000 5.0000 25 OUTLET
SC_28841 0.0150 0.2000 2.0000 5.0000 25 OUTLET
SC_28842 0.0150 0.2000 2.0000 5.0000 25 OUTLET
SC_28843 0.0150 0.2000 2.0000 5.0000 25 OUTLET
SC_28844 0.0150 0.2000 2.0000 5.0000 25 OUTLET
SC_28845 0.0150 0.2000 2.0000 5.0000 25 OUTLET
SC_28846 0.0150 0.2000 2.0000 5.0000 25 OUTLET
SC_28847 0.0150 0.2000 2.0000 5.0000 25 OUTLET
SC_28848 0.0150 0.2000 2.0000 5.0000 25 OUTLET
SC_28849 0.0150 0.2000 2.0000 5.0000 25 OUTLET
SC_28850 0.0150 0.2000 2.0000 5.0000 25 OUTLET
SC_28851 0.0150 0.2000 2.0000 5.0000 25 OUTLET
SC_28852 0.0150 0.2000 2.0000 5.0000 25 OUTLET
SC_28853 0.0150 0.2000 2.0000 5.0000 25 OUTLET
SC_28857 0.0150 0.2000 2.0000 5.0000 25 OUTLET
SC_28858 0.0150 0.2000 2.0000 5.0000 25 OUTLET
SC_28859 0.0150 0.2000 2.0000 5.0000 25 OUTLET
SC_28863 0.0150 0.2000 2.0000 5.0000 25 OUTLET
SC_28864 0.0150 0.2000 2.0000 5.0000 25 OUTLET
SC_28865 0.0150 0.2000 2.0000 5.0000 25 OUTLET
SC_28866 0.0150 0.2000 2.0000 5.0000 25 OUTLET
SC_28867 0.0150 0.2000 2.0000 5.0000 25 OUTLET
SC_28875 0.0150 0.2000 2.0000 5.0000 25 OUTLET
SC_28876 0.0150 0.2000 2.0000 5.0000 25 OUTLET
SC_28877 0.0150 0.2000 2.0000 5.0000 25 OUTLET
SC_29079 0.0150 0.2000 2.0000 5.0000 25 OUTLET
SC_29080 0.0150 0.2000 2.0000 5.0000 25 OUTLET
SC_29081 0.0150 0.2000 2.0000 5.0000 25 OUTLET
SC_29082 0.0150 0.2000 2.0000 5.0000 25 OUTLET
SC_29083 0.0150 0.2000 2.0000 5.0000 25 OUTLET
SC_29084 0.0150 0.2000 2.0000 5.0000 25 OUTLET
SC_29085 0.0150 0.2000 2.0000 5.0000 25 OUTLET
SC_29086 0.0150 0.2000 2.0000 5.0000 25 OUTLET
SC_29087 0.0150 0.2000 2.0000 5.0000 25 OUTLET
SC_29088 0.0150 0.2000 2.0000 5.0000 25 OUTLET
SC_29089 0.0150 0.2000 2.0000 5.0000 25 OUTLET
SC_29090 0.0150 0.2000 2.0000 5.0000 25 OUTLET
SC_29091 0.0150 0.2000 2.0000 5.0000 25 OUTLET
SC_29092 0.0150 0.2000 2.0000 5.0000 25 OUTLET
SC_29093 0.0150 0.2000 2.0000 5.0000 25 OUTLET
SC_29094 0.0150 0.2000 2.0000 5.0000 25 OUTLET
SC_29095 0.0150 0.2000 2.0000 5.0000 25 OUTLET
SC_29096 0.0150 0.2000 2.0000 5.0000 25 OUTLET
SC_29097 0.0150 0.2000 2.0000 5.0000 25 OUTLET
SC_29098 0.0150 0.2000 2.0000 5.0000 25 OUTLET
SC_29099 0.0150 0.2000 2.0000 5.0000 25 OUTLET
SC_29100 0.0150 0.2000 2.0000 5.0000 25 OUTLET
SC_29101 0.0150 0.2000 2.0000 5.0000 25 OUTLET
SC_29102 0.0150 0.2000 2.0000 5.0000 25 OUTLET
SC_29103 0.0150 0.2000 2.0000 5.0000 25 OUTLET
SC_29104 0.0150 0.2000 2.0000 5.0000 25 OUTLET
SC_29105 0.0150 0.2000 2.0000 5.0000 25 OUTLET
SC_29106 0.0150 0.2000 2.0000 5.0000 25 OUTLET
SC_29107 0.0150 0.2000 2.0000 5.0000 25 OUTLET
SC_29108 0.0150 0.2000 2.0000 5.0000 25 OUTLET
SC_29109 0.0150 0.2000 2.0000 5.0000 25 OUTLET
SC_29110 0.0150 0.2000 2.0000 5.0000 25 OUTLET
SC_29111 0.0150 0.2000 2.0000 5.0000 25 OUTLET
SC_29112 0.0150 0.2000 2.0000 5.0000 25 OUTLET
SC_29113 0.0150 0.2000 2.0000 5.0000 25 OUTLET
SC_29114 0.0150 0.2000 2.0000 5.0000 25 OUTLET
SC_29115 0.0150 0.2000 2.0000 5.0000 25 OUTLET
SC_29116 0.0150 0.2000 2.0000 5.0000 25 OUTLET
SC_29117 0.0150 0.2000 2.0000 5.0000 25 OUTLET
SC_29118 0.0150 0.2000 2.0000 5.0000 25 OUTLET
SC_29119 0.0150 0.2000 2.0000 5.0000 25 OUTLET
SC_29120 0.0150 0.2000 2.0000 5.0000 25 OUTLET
SC_29121 0.0150 0.2000 2.0000 5.0000 25 OUTLET
SC_29122 0.0150 0.2000 2.0000 5.0000 25 OUTLET
SC_29123 0.0150 0.2000 2.0000 5.0000 25 OUTLET
SC_29124 0.0150 0.2000 2.0000 5.0000 25 OUTLET
SC_29125 0.0150 0.2000 2.0000 5.0000 25 OUTLET
SC_29126 0.0150 0.2000 2.0000 5.0000 25 OUTLET
SC_29127 0.0150 0.2000 2.0000 5.0000 25 OUTLET
SC_29128 0.0150 0.2000 2.0000 5.0000 25 OUTLET
SC_29129 0.0150 0.2000 2.0000 5.0000 25 OUTLET
SC_29130 0.0150 0.2000 2.0000 5.0000 25 OUTLET
SC_29131 0.0150 0.2000 2.0000 5.0000 25 OUTLET
SC_29132 0.0150 0.2000 2.0000 5.0000 25 OUTLET
SC_29133 0.0150 0.2000 2.0000 5.0000 25 OUTLET
SC_29134 0.0150 0.2000 2.0000 5.0000 25 OUTLET
SC_29135 0.0150 0.2000 2.0000 5.0000 25 OUTLET
SC_29136 0.0150 0.2000 2.0000 5.0000 25 OUTLET
SC_29137 0.0150 0.2000 2.0000 5.0000 25 OUTLET
SC_29138 0.0150 0.2000 2.0000 5.0000 25 OUTLET
SC_29139 0.0150 0.2000 2.0000 5.0000 25 OUTLET
SC_29140 0.0150 0.2000 2.0000 5.0000 25 OUTLET
SC_29141 0.0150 0.2000 2.0000 5.0000 25 OUTLET
SC_29142 0.0150 0.2000 2.0000 5.0000 25 OUTLET
SC_29143 0.0150 0.2000 2.0000 5.0000 25 OUTLET
SC_29144 0.0150 0.2000 2.0000 5.0000 25 OUTLET
SC_29148 0.0150 0.2000 2.0000 5.0000 25 OUTLET
SC_29149 0.0150 0.2000 2.0000 5.0000 25 OUTLET
SC_29150 0.0150 0.2000 2.0000 5.0000 25 OUTLET
SC_29151 0.0150 0.2000 2.0000 5.0000 25 OUTLET
SC_29152 0.0150 0.2000 2.0000 5.0000 25 OUTLET
SC_29357 0.0150 0.2000 2.0000 5.0000 25 OUTLET
SC_29358 0.0150 0.2000 2.0000 5.0000 25 OUTLET
SC_29359 0.0150 0.2000 2.0000 5.0000 25 OUTLET
SC_29360 0.0150 0.2000 2.0000 5.0000 25 OUTLET
SC_29361 0.0150 0.2000 2.0000 5.0000 25 OUTLET
SC_29362 0.0150 0.2000 2.0000 5.0000 25 OUTLET
SC_29363 0.0150 0.2000 2.0000 5.0000 25 OUTLET
SC_29364 0.0150 0.2000 2.0000 5.0000 25 OUTLET
SC_29365 0.0150 0.2000 2.0000 5.0000 25 OUTLET
SC_29366 0.0150 0.2000 2.0000 5.0000 25 OUTLET
SC_29367 0.0150 0.2000 2.0000 5.0000 25 OUTLET
SC_29368 0.0150 0.2000 2.0000 5.0000 25 OUTLET
SC_29369 0.0150 0.2000 2.0000 5.0000 25 OUTLET
SC_29370 0.0150 0.2000 2.0000 5.0000 25 OUTLET
SC_29371 0.0150 0.2000 2.0000 5.0000 25 OUTLET
SC_29372 0.0150 0.2000 2.0000 5.0000 25 OUTLET
SC_29373 0.0150 0.2000 2.0000 5.0000 25 OUTLET
SC_29374 0.0150 0.2000 2.0000 5.0000 25 OUTLET
SC_29375 0.0150 0.2000 2.0000 5.0000 25 OUTLET
SC_29376 0.0150 0.2000 2.0000 5.0000 25 OUTLET
SC_29377 0.0150 0.2000 2.0000 5.0000 25 OUTLET
SC_29378 0.0150 0.2000 2.0000 5.0000 25 OUTLET
SC_29379 0.0150 0.2000 2.0000 5.0000 25 OUTLET
SC_29380 0.0150 0.2000 2.0000 5.0000 25 OUTLET
SC_29381 0.0150 0.2000 2.0000 5.0000 25 OUTLET
SC_29382 0.0150 0.2000 2.0000 5.0000 25 OUTLET
SC_29383 0.0150 0.2000 2.0000 5.0000 25 OUTLET
SC_29384 0.0150 0.2000 2.0000 5.0000 25 OUTLET
SC_29385 0.0150 0.2000 2.0000 5.0000 25 OUTLET
SC_29386 0.0150 0.2000 2.0000 5.0000 25 OUTLET
SC_29387 0.0150 0.2000 2.0000 5.0000 25 OUTLET
SC_29388 0.0150 0.2000 2.0000 5.0000 25 OUTLET
SC_29389 0.0150 0.2000 2.0000 5.0000 25 OUTLET
SC_29390 0.0150 0.2000 2.0000 5.0000 25 OUTLET
SC_29391 0.0150 0.2000 2.0000 5.0000 25 OUTLET
SC_29392 0.0150 0.2000 2.0000 5.0000 25 OUTLET
SC_29393 0.0150 0.2000 2.0000 5.0000 25 OUTLET
SC_29394 0.0150 0.2000 2.0000 5.0000 25 OUTLET
SC_29395 0.0150 0.2000 2.0000 5.0000 25 OUTLET
SC_29396 0.0150 0.2000 2.0000 5.0000 25 OUTLET
SC_29397 0.0150 0.2000 2.0000 5.0000 25 OUTLET
SC_29398 0.0150 0.2000 2.0000 5.0000 25 OUTLET
SC_29399 0.0150 0.2000 2.0000 5.0000 25 OUTLET
SC_29400 0.0150 0.2000 2.0000 5.0000 25 OUTLET
SC_29401 0.0150 0.2000 2.0000 5.0000 25 OUTLET
SC_29402 0.0150 0.2000 2.0000 5.0000 25 OUTLET
SC_29403 0.0150 0.2000 2.0000 5.0000 25 OUTLET
SC_29404 0.0150 0.2000 2.0000 5.0000 25 OUTLET
SC_29405 0.0150 0.2000 2.0000 5.0000 25 OUTLET
SC_29406 0.0150 0.2000 2.0000 5.0000 25 OUTLET
SC_29407 0.0150 0.2000 2.0000 5.0000 25 OUTLET
SC_29408 0.0150 0.2000 2.0000 5.0000 25 OUTLET
SC_29409 0.0150 0.2000 2.0000 5.0000 25 OUTLET
SC_29410 0.0150 0.2000 2.0000 5.0000 25 OUTLET
SC_29411 0.0150 0.2000 2.0000 5.0000 25 OUTLET
SC_29412 0.0150 0.2000 2.0000 5.0000 25 OUTLET
SC_29413 0.0150 0.2000 2.0000 5.0000 25 OUTLET
SC_29414 0.0150 0.2000 2.0000 5.0000 25 OUTLET
SC_29415 0.0150 0.2000 2.0000 5.0000 25 OUTLET
SC_29416 0.0150 0.2000 2.0000 5.0000 25 OUTLET
SC_29417 0.0150 0.2000 2.0000 5.0000 25 OUTLET
SC_29418 0.0150 0.2000 2.0000 5.0000 25 OUTLET
SC_29419 0.0150 0.2000 2.0000 5.0000 25 OUTLET
SC_29420 0.0150 0.2000 2.0000 5.0000 25 OUTLET
SC_29421 0.0150 0.2000 2.0000 5.0000 25 OUTLET
SC_29423 0.0150 0.2000 2.0000 5.0000 25 OUTLET
SC_29424 0.0150 0.2000 2.0000 5.0000 25 OUTLET
SC_29425 0.0150 0.2000 2.0000 5.0000 25 OUTLET
SC_29426 0.0150 0.2000 2.0000 5.0000 25 OUTLET
SC_29427 0.0150 0.2000 2.0000 5.0000 25 OUTLET
SC_29428 0.0150 0.2000 2.0000 5.0000 25 OUTLET
SC_29638 0.0150 0.2000 2.0000 5.0000 25 OUTLET
SC_29639 0.0150 0.2000 2.0000 5.0000 25 OUTLET
SC_29640 0.0150 0.2000 2.0000 5.0000 25 OUTLET
SC_29641 0.0150 0.2000 2.0000 5.0000 25 OUTLET
SC_29642 0.0150 0.2000 2.0000 5.0000 25 OUTLET
SC_29643 0.0150 0.2000 2.0000 5.0000 25 OUTLET
SC_29644 0.0150 0.2000 2.0000 5.0000 25 OUTLET
SC_29645 0.0150 0.2000 2.0000 5.0000 25 OUTLET
SC_29646 0.0150 0.2000 2.0000 5.0000 25 OUTLET
SC_29647 0.0150 0.2000 2.0000 5.0000 25 OUTLET
SC_29648 0.0150 0.2000 2.0000 5.0000 25 OUTLET
SC_29649 0.0150 0.2000 2.0000 5.0000 25 OUTLET
SC_29650 0.0150 0.2000 2.0000 5.0000 25 OUTLET
SC_29651 0.0150 0.2000 2.0000 5.0000 25 OUTLET
SC_29652 0.0150 0.2000 2.0000 5.0000 25 OUTLET
SC_29653 0.0150 0.2000 2.0000 5.0000 25 OUTLET
SC_29654 0.0150 0.2000 2.0000 5.0000 25 OUTLET
SC_29655 0.0150 0.2000 2.0000 5.0000 25 OUTLET
SC_29656 0.0150 0.2000 2.0000 5.0000 25 OUTLET
SC_29657 0.0150 0.2000 2.0000 5.0000 25 OUTLET
SC_29658 0.0150 0.2000 2.0000 5.0000 25 OUTLET
SC_29659 0.0150 0.2000 2.0000 5.0000 25 OUTLET
SC_29660 0.0150 0.2000 2.0000 5.0000 25 OUTLET
SC_29661 0.0150 0.2000 2.0000 5.0000 25 OUTLET
SC_29662 0.0150 0.2000 2.0000 5.0000 25 OUTLET
SC_29663 0.0150 0.2000 2.0000 5.0000 25 OUTLET
SC_29664 0.0150 0.2000 2.0000 5.0000 25 OUTLET
SC_29665 0.0150 0.2000 2.0000 5.0000 25 OUTLET
SC_29666 0.0150 0.2000 2.0000 5.0000 25 OUTLET
SC_29667 0.0150 0.2000 2.0000 5.0000 25 OUTLET
SC_29668 0.0150 0.2000 2.0000 5.0000 25 OUTLET
SC_29669 0.0150 0.2000 2.0000 5.0000 25 OUTLET
SC_29670 0.0150 0.2000 2.0000 5.0000 25 OUTLET
SC_29671 0.0150 0.2000 2.0000 5.0000 25 OUTLET
SC_29672 0.0150 0.2000 2.0000 5.0000 25 OUTLET
SC_29673 0.0150 0.2000 2.0000 5.0000 25 OUTLET
SC_29674 0.0150 0.2000 2.0000 5.0000 25 OUTLET
SC_29675 0.0150 0.2000 2.0000 5.0000 25 OUTLET
SC_29676 0.0150 0.2000 2.0000 5.0000 25 OUTLET
SC_29677 0.0150 0.2000 2.0000 5.0000 25 OUTLET
SC_29678 0.0150 0.2000 2.0000 5.0000 25 OUTLET
SC_29679 0.0150 0.2000 2.0000 5.0000 25 OUTLET
SC_29680 0.0150 0.2000 2.0000 5.0000 25 OUTLET
SC_29681 0.0150 0.2000 2.0000 5.0000 25 OUTLET
SC_29682 0.0150 0.2000 2.0000 5.0000 25 OUTLET
SC_29683 0.0150 0.2000 2.0000 5.0000 25 OUTLET
SC_29684 0.0150 0.2000 2.0000 5.0000 25 OUTLET
SC_29685 0.0150 0.2000 2.0000 5.0000 25 OUTLET
SC_29686 0.0150 0.2000 2.0000 5.0000 25 OUTLET
SC_29687 0.0150 0.2000 2.0000 5.0000 25 OUTLET
SC_29688 0.0150 0.2000 2.0000 5.0000 25 OUTLET
SC_29689 0.0150 0.2000 2.0000 5.0000 25 OUTLET
SC_29690 0.0150 0.2000 2.0000 5.0000 25 OUTLET
SC_29691 0.0150 0.2000 2.0000 5.0000 25 OUTLET
SC_29692 0.0150 0.2000 2.0000 5.0000 25 OUTLET
SC_29693 0.0150 0.2000 2.0000 5.0000 25 OUTLET
SC_29694 0.0150 0.2000 2.0000 5.0000 25 OUTLET
SC_29695 0.0150 0.2000 2.0000 5.0000 25 OUTLET
SC_29696 0.0150 0.2000 2.0000 5.0000 25 OUTLET
SC_29697 0.0150 0.2000 2.0000 5.0000 25 OUTLET
SC_29698 0.0150 0.2000 2.0000 5.0000 25 OUTLET
SC_29699 0.0150 0.2000 2.0000 5.0000 25 OUTLET
SC_29700 0.0150 0.2000 2.0000 5.0000 25 OUTLET
SC_29701 0.0150 0.2000 2.0000 5.0000 25 OUTLET
SC_29702 0.0150 0.2000 2.0000 5.0000 25 OUTLET
SC_29703 0.0150 0.2000 2.0000 5.0000 25 OUTLET
SC_29704 0.0150 0.2000 2.0000 5.0000 25 OUTLET
SC_29705 0.0150 0.2000 2.0000 5.0000 25 OUTLET
SC_29706 0.0150 0.2000 2.0000 5.0000 25 OUTLET
SC_29707 0.0150 0.2000 2.0000 5.0000 25 OUTLET
SC_29917 0.0150 0.2000 2.0000 5.0000 25 OUTLET
SC_29918 0.0150 0.2000 2.0000 5.0000 25 OUTLET
SC_29919 0.0150 0.2000 2.0000 5.0000 25 OUTLET
SC_29920 0.0150 0.2000 2.0000 5.0000 25 OUTLET
SC_29921 0.0150 0.2000 2.0000 5.0000 25 OUTLET
SC_29922 0.0150 0.2000 2.0000 5.0000 25 OUTLET
SC_29923 0.0150 0.2000 2.0000 5.0000 25 OUTLET
SC_29924 0.0150 0.2000 2.0000 5.0000 25 OUTLET
SC_29925 0.0150 0.2000 2.0000 5.0000 25 OUTLET
SC_29926 0.0150 0.2000 2.0000 5.0000 25 OUTLET
SC_29927 0.0150 0.2000 2.0000 5.0000 25 OUTLET
SC_29928 0.0150 0.2000 2.0000 5.0000 25 OUTLET
SC_29929 0.0150 0.2000 2.0000 5.0000 25 OUTLET
SC_29930 0.0150 0.2000 2.0000 5.0000 25 OUTLET
SC_29931 0.0150 0.2000 2.0000 5.0000 25 OUTLET
SC_29932 0.0150 0.2000 2.0000 5.0000 25 OUTLET
SC_29933 0.0150 0.2000 2.0000 5.0000 25 OUTLET
SC_29934 0.0150 0.2000 2.0000 5.0000 25 OUTLET
SC_29935 0.0150 0.2000 2.0000 5.0000 25 OUTLET
SC_29936 0.0150 0.2000 2.0000 5.0000 25 OUTLET
SC_29937 0.0150 0.2000 2.0000 5.0000 25 OUTLET
SC_29938 0.0150 0.2000 2.0000 5.0000 25 OUTLET
SC_29939 0.0150 0.2000 2.0000 5.0000 25 OUTLET
SC_29940 0.0150 0.2000 2.0000 5.0000 25 OUTLET
SC_29941 0.0150 0.2000 2.0000 5.0000 25 OUTLET
SC_29942 0.0150 0.2000 2.0000 5.0000 25 OUTLET
SC_29943 0.0150 0.2000 2.0000 5.0000 25 OUTLET
SC_29944 0.0150 0.2000 2.0000 5.0000 25 OUTLET
SC_29945 0.0150 0.2000 2.0000 5.0000 25 OUTLET
SC_29946 0.0150 0.2000 2.0000 5.0000 25 OUTLET
SC_29947 0.0150 0.2000 2.0000 5.0000 25 OUTLET
SC_29948 0.0150 0.2000 2.0000 5.0000 25 OUTLET
SC_29949 0.0150 0.2000 2.0000 5.0000 25 OUTLET
SC_29950 0.0150 0.2000 2.0000 5.0000 25 OUTLET
SC_29951 0.0150 0.2000 2.0000 5.0000 25 OUTLET
SC_29952 0.0150 0.2000 2.0000 5.0000 25 OUTLET
SC_29953 0.0150 0.2000 2.0000 5.0000 25 OUTLET
SC_29954 0.0150 0.2000 2.0000 5.0000 25 OUTLET
SC_29955 0.0150 0.2000 2.0000 5.0000 25 OUTLET
SC_29956 0.0150 0.2000 2.0000 5.0000 25 OUTLET
SC_29957 0.0150 0.2000 2.0000 5.0000 25 OUTLET
SC_29958 0.0150 0.2000 2.0000 5.0000 25 OUTLET
SC_29959 0.0150 0.2000 2.0000 5.0000 25 OUTLET
SC_29960 0.0150 0.2000 2.0000 5.0000 25 OUTLET
SC_29961 0.0150 0.2000 2.0000 5.0000 25 OUTLET
SC_29962 0.0150 0.2000 2.0000 5.0000 25 OUTLET
SC_29963 0.0150 0.2000 2.0000 5.0000 25 OUTLET
SC_29964 0.0150 0.2000 2.0000 5.0000 25 OUTLET
SC_29965 0.0150 0.2000 2.0000 5.0000 25 OUTLET
SC_29966 0.0150 0.2000 2.0000 5.0000 25 OUTLET
SC_29967 0.0150 0.2000 2.0000 5.0000 25 OUTLET
SC_29968 0.0150 0.2000 2.0000 5.0000 25 OUTLET
SC_29969 0.0150 0.2000 2.0000 5.0000 25 OUTLET
SC_29970 0.0150 0.2000 2.0000 5.0000 25 OUTLET
SC_29971 0.0150 0.2000 2.0000 5.0000 25 OUTLET
SC_29972 0.0150 0.2000 2.0000 5.0000 25 OUTLET
SC_29973 0.0150 0.2000 2.0000 5.0000 25 OUTLET
SC_29974 0.0150 0.2000 2.0000 5.0000 25 OUTLET
SC_29975 0.0150 0.2000 2.0000 5.0000 25 OUTLET
SC_29976 0.0150 0.2000 2.0000 5.0000 25 OUTLET
SC_29977 0.0150 0.2000 2.0000 5.0000 25 OUTLET
SC_29978 0.0150 0.2000 2.0000 5.0000 25 OUTLET
SC_29979 0.0150 0.2000 2.0000 5.0000 25 OUTLET
SC_29980 0.0150 0.2000 2.0000 5.0000 25 OUTLET
SC_29981 0.0150 0.2000 2.0000 5.0000 25 OUTLET
SC_29982 0.0150 0.2000 2.0000 5.0000 25 OUTLET
SC_29983 0.0150 0.2000 2.0000 5.0000 25 OUTLET
SC_29984 0.0150 0.2000 2.0000 5.0000 25 OUTLET
SC_30197 0.0150 0.2000 2.0000 5.0000 25 OUTLET
SC_30198 0.0150 0.2000 2.0000 5.0000 25 OUTLET
SC_30204 0.0150 0.2000 2.0000 5.0000 25 OUTLET
SC_30205 0.0150 0.2000 2.0000 5.0000 25 OUTLET
SC_30206 0.0150 0.2000 2.0000 5.0000 25 OUTLET
SC_30207 0.0150 0.2000 2.0000 5.0000 25 OUTLET
SC_30208 0.0150 0.2000 2.0000 5.0000 25 OUTLET
SC_30209 0.0150 0.2000 2.0000 5.0000 25 OUTLET
SC_30210 0.0150 0.2000 2.0000 5.0000 25 OUTLET
SC_30211 0.0150 0.2000 2.0000 5.0000 25 OUTLET
SC_30212 0.0150 0.2000 2.0000 5.0000 25 OUTLET
SC_30213 0.0150 0.2000 2.0000 5.0000 25 OUTLET
SC_30214 0.0150 0.2000 2.0000 5.0000 25 OUTLET
SC_30215 0.0150 0.2000 2.0000 5.0000 25 OUTLET
SC_30216 0.0150 0.2000 2.0000 5.0000 25 OUTLET
SC_30217 0.0150 0.2000 2.0000 5.0000 25 OUTLET
SC_30218 0.0150 0.2000 2.0000 5.0000 25 OUTLET
SC_30219 0.0150 0.2000 2.0000 5.0000 25 OUTLET
SC_30220 0.0150 0.2000 2.0000 5.0000 25 OUTLET
SC_30221 0.0150 0.2000 2.0000 5.0000 25 OUTLET
SC_30222 0.0150 0.2000 2.0000 5.0000 25 OUTLET
SC_30223 0.0150 0.2000 2.0000 5.0000 25 OUTLET
SC_30224 0.0150 0.2000 2.0000 5.0000 25 OUTLET
SC_30225 0.0150 0.2000 2.0000 5.0000 25 OUTLET
SC_30226 0.0150 0.2000 2.0000 5.0000 25 OUTLET
SC_30227 0.0150 0.2000 2.0000 5.0000 25 OUTLET
SC_30228 0.0150 0.2000 2.0000 5.0000 25 OUTLET
SC_30229 0.0150 0.2000 2.0000 5.0000 25 OUTLET
SC_30230 0.0150 0.2000 2.0000 5.0000 25 OUTLET
SC_30231 0.0150 0.2000 2.0000 5.0000 25 OUTLET
SC_30232 0.0150 0.2000 2.0000 5.0000 25 OUTLET
SC_30233 0.0150 0.2000 2.0000 5.0000 25 OUTLET
SC_30234 0.0150 0.2000 2.0000 5.0000 25 OUTLET
SC_30235 0.0150 0.2000 2.0000 5.0000 25 OUTLET
SC_30236 0.0150 0.2000 2.0000 5.0000 25 OUTLET
SC_30237 0.0150 0.2000 2.0000 5.0000 25 OUTLET
SC_30238 0.0150 0.2000 2.0000 5.0000 25 OUTLET
SC_30239 0.0150 0.2000 2.0000 5.0000 25 OUTLET
SC_30240 0.0150 0.2000 2.0000 5.0000 25 OUTLET
SC_30241 0.0150 0.2000 2.0000 5.0000 25 OUTLET
SC_30242 0.0150 0.2000 2.0000 5.0000 25 OUTLET
SC_30243 0.0150 0.2000 2.0000 5.0000 25 OUTLET
SC_30244 0.0150 0.2000 2.0000 5.0000 25 OUTLET
SC_30245 0.0150 0.2000 2.0000 5.0000 25 OUTLET
SC_30246 0.0150 0.2000 2.0000 5.0000 25 OUTLET
SC_30247 0.0150 0.2000 2.0000 5.0000 25 OUTLET
SC_30248 0.0150 0.2000 2.0000 5.0000 25 OUTLET
SC_30249 0.0150 0.2000 2.0000 5.0000 25 OUTLET
SC_30250 0.0150 0.2000 2.0000 5.0000 25 OUTLET
SC_30251 0.0150 0.2000 2.0000 5.0000 25 OUTLET
SC_30252 0.0150 0.2000 2.0000 5.0000 25 OUTLET
SC_30253 0.0150 0.2000 2.0000 5.0000 25 OUTLET
SC_30254 0.0150 0.2000 2.0000 5.0000 25 OUTLET
SC_30255 0.0150 0.2000 2.0000 5.0000 25 OUTLET
SC_30256 0.0150 0.2000 2.0000 5.0000 25 OUTLET
SC_30257 0.0150 0.2000 2.0000 5.0000 25 OUTLET
SC_30258 0.0150 0.2000 2.0000 5.0000 25 OUTLET
SC_30259 0.0150 0.2000 2.0000 5.0000 25 OUTLET
SC_30260 0.0150 0.2000 2.0000 5.0000 25 OUTLET
SC_30261 0.0150 0.2000 2.0000 5.0000 25 OUTLET
SC_30262 0.0150 0.2000 2.0000 5.0000 25 OUTLET
SC_30488 0.0150 0.2000 2.0000 5.0000 25 OUTLET
SC_30489 0.0150 0.2000 2.0000 5.0000 25 OUTLET
SC_30490 0.0150 0.2000 2.0000 5.0000 25 OUTLET
SC_30491 0.0150 0.2000 2.0000 5.0000 25 OUTLET
SC_30492 0.0150 0.2000 2.0000 5.0000 25 OUTLET
SC_30493 0.0150 0.2000 2.0000 5.0000 25 OUTLET
SC_30494 0.0150 0.2000 2.0000 5.0000 25 OUTLET
SC_30495 0.0150 0.2000 2.0000 5.0000 25 OUTLET
SC_30496 0.0150 0.2000 2.0000 5.0000 25 OUTLET
SC_30497 0.0150 0.2000 2.0000 5.0000 25 OUTLET
SC_30498 0.0150 0.2000 2.0000 5.0000 25 OUTLET
SC_30499 0.0150 0.2000 2.0000 5.0000 25 OUTLET
SC_30500 0.0150 0.2000 2.0000 5.0000 25 OUTLET
SC_30501 0.0150 0.2000 2.0000 5.0000 25 OUTLET
SC_30502 0.0150 0.2000 2.0000 5.0000 25 OUTLET
SC_30503 0.0150 0.2000 2.0000 5.0000 25 OUTLET
SC_30504 0.0150 0.2000 2.0000 5.0000 25 OUTLET
SC_30506 0.0150 0.2000 2.0000 5.0000 25 OUTLET
SC_30507 0.0150 0.2000 2.0000 5.0000 25 OUTLET
SC_30508 0.0150 0.2000 2.0000 5.0000 25 OUTLET
SC_30509 0.0150 0.2000 2.0000 5.0000 25 OUTLET
SC_30510 0.0150 0.2000 2.0000 5.0000 25 OUTLET
SC_30511 0.0150 0.2000 2.0000 5.0000 25 OUTLET
SC_30512 0.0150 0.2000 2.0000 5.0000 25 OUTLET
SC_30513 0.0150 0.2000 2.0000 5.0000 25 OUTLET
SC_30514 0.0150 0.2000 2.0000 5.0000 25 OUTLET
SC_30515 0.0150 0.2000 2.0000 5.0000 25 OUTLET
SC_30516 0.0150 0.2000 2.0000 5.0000 25 OUTLET
SC_30517 0.0150 0.2000 2.0000 5.0000 25 OUTLET
SC_30518 0.0150 0.2000 2.0000 5.0000 25 OUTLET
SC_30519 0.0150 0.2000 2.0000 5.0000 25 OUTLET
SC_30520 0.0150 0.2000 2.0000 5.0000 25 OUTLET
SC_30521 0.0150 0.2000 2.0000 5.0000 25 OUTLET
SC_30522 0.0150 0.2000 2.0000 5.0000 25 OUTLET
SC_30523 0.0150 0.2000 2.0000 5.0000 25 OUTLET
SC_30524 0.0150 0.2000 2.0000 5.0000 25 OUTLET
SC_30525 0.0150 0.2000 2.0000 5.0000 25 OUTLET
SC_30526 0.0150 0.2000 2.0000 5.0000 25 OUTLET
SC_30527 0.0150 0.2000 2.0000 5.0000 25 OUTLET
SC_30528 0.0150 0.2000 2.0000 5.0000 25 OUTLET
SC_30529 0.0150 0.2000 2.0000 5.0000 25 OUTLET
SC_30530 0.0150 0.2000 2.0000 5.0000 25 OUTLET
SC_30531 0.0150 0.2000 2.0000 5.0000 25 OUTLET
SC_30532 0.0150 0.2000 2.0000 5.0000 25 OUTLET
SC_30533 0.0150 0.2000 2.0000 5.0000 25 OUTLET
SC_30534 0.0150 0.2000 2.0000 5.0000 25 OUTLET
SC_30535 0.0150 0.2000 2.0000 5.0000 25 OUTLET
SC_30536 0.0150 0.2000 2.0000 5.0000 25 OUTLET
SC_30537 0.0150 0.2000 2.0000 5.0000 25 OUTLET
SC_30538 0.0150 0.2000 2.0000 5.0000 25 OUTLET
SC_30539 0.0150 0.2000 2.0000 5.0000 25 OUTLET
SC_30540 0.0150 0.2000 2.0000 5.0000 25 OUTLET
SC_30541 0.0150 0.2000 2.0000 5.0000 25 OUTLET
SC_30542 0.0150 0.2000 2.0000 5.0000 25 OUTLET
SC_30773 0.0150 0.2000 2.0000 5.0000 25 OUTLET
SC_30774 0.0150 0.2000 2.0000 5.0000 25 OUTLET
SC_30775 0.0150 0.2000 2.0000 5.0000 25 OUTLET
SC_30776 0.0150 0.2000 2.0000 5.0000 25 OUTLET
SC_30779 0.0150 0.2000 2.0000 5.0000 25 OUTLET
SC_30780 0.0150 0.2000 2.0000 5.0000 25 OUTLET
SC_30781 0.0150 0.2000 2.0000 5.0000 25 OUTLET
SC_30782 0.0150 0.2000 2.0000 5.0000 25 OUTLET
SC_30783 0.0150 0.2000 2.0000 5.0000 25 OUTLET
SC_30787 0.0150 0.2000 2.0000 5.0000 25 OUTLET
SC_30788 0.0150 0.2000 2.0000 5.0000 25 OUTLET
SC_30789 0.0150 0.2000 2.0000 5.0000 25 OUTLET
SC_30790 0.0150 0.2000 2.0000 5.0000 25 OUTLET
SC_30791 0.0150 0.2000 2.0000 5.0000 25 OUTLET
SC_30792 0.0150 0.2000 2.0000 5.0000 25 OUTLET
SC_30793 0.0150 0.2000 2.0000 5.0000 25 OUTLET
SC_30794 0.0150 0.2000 2.0000 5.0000 25 OUTLET
SC_30795 0.0150 0.2000 2.0000 5.0000 25 OUTLET
SC_30796 0.0150 0.2000 2.0000 5.0000 25 OUTLET
SC_30797 0.0150 0.2000 2.0000 5.0000 25 OUTLET
SC_30798 0.0150 0.2000 2.0000 5.0000 25 OUTLET
SC_30799 0.0150 0.2000 2.0000 5.0000 25 OUTLET
SC_30800 0.0150 0.2000 2.0000 5.0000 25 OUTLET
SC_30801 0.0150 0.2000 2.0000 5.0000 25 OUTLET
SC_30802 0.0150 0.2000 2.0000 5.0000 25 OUTLET
SC_30803 0.0150 0.2000 2.0000 5.0000 25 OUTLET
SC_30804 0.0150 0.2000 2.0000 5.0000 25 OUTLET
SC_30805 0.0150 0.2000 2.0000 5.0000 25 OUTLET
SC_30806 0.0150 0.2000 2.0000 5.0000 25 OUTLET
SC_30807 0.0150 0.2000 2.0000 5.0000 25 OUTLET
SC_30808 0.0150 0.2000 2.0000 5.0000 25 OUTLET
SC_30809 0.0150 0.2000 2.0000 5.0000 25 OUTLET
SC_30810 0.0150 0.2000 2.0000 5.0000 25 OUTLET
SC_30811 0.0150 0.2000 2.0000 5.0000 25 OUTLET
SC_30812 0.0150 0.2000 2.0000 5.0000 25 OUTLET
SC_30813 0.0150 0.2000 2.0000 5.0000 25 OUTLET
SC_30814 0.0150 0.2000 2.0000 5.0000 25 OUTLET
SC_30815 0.0150 0.2000 2.0000 5.0000 25 OUTLET
SC_30816 0.0150 0.2000 2.0000 5.0000 25 OUTLET
SC_30817 0.0150 0.2000 2.0000 5.0000 25 OUTLET
SC_30818 0.0150 0.2000 2.0000 5.0000 25 OUTLET
SC_30819 0.0150 0.2000 2.0000 5.0000 25 OUTLET
SC_30820 0.0150 0.2000 2.0000 5.0000 25 OUTLET
SC_30821 0.0150 0.2000 2.0000 5.0000 25 OUTLET
SC_30822 0.0150 0.2000 2.0000 5.0000 25 OUTLET
SC_31061 0.0150 0.2000 2.0000 5.0000 25 OUTLET
SC_31063 0.0150 0.2000 2.0000 5.0000 25 OUTLET
SC_31064 0.0150 0.2000 2.0000 5.0000 25 OUTLET
SC_31065 0.0150 0.2000 2.0000 5.0000 25 OUTLET
SC_31066 0.0150 0.2000 2.0000 5.0000 25 OUTLET
SC_31069 0.0150 0.2000 2.0000 5.0000 25 OUTLET
SC_31070 0.0150 0.2000 2.0000 5.0000 25 OUTLET
SC_31071 0.0150 0.2000 2.0000 5.0000 25 OUTLET
SC_31072 0.0150 0.2000 2.0000 5.0000 25 OUTLET
SC_31073 0.0150 0.2000 2.0000 5.0000 25 OUTLET
SC_31074 0.0150 0.2000 2.0000 5.0000 25 OUTLET
SC_31075 0.0150 0.2000 2.0000 5.0000 25 OUTLET
SC_31076 0.0150 0.2000 2.0000 5.0000 25 OUTLET
SC_31077 0.0150 0.2000 2.0000 5.0000 25 OUTLET
SC_31078 0.0150 0.2000 2.0000 5.0000 25 OUTLET
SC_31079 0.0150 0.2000 2.0000 5.0000 25 OUTLET
SC_31080 0.0150 0.2000 2.0000 5.0000 25 OUTLET
SC_31081 0.0150 0.2000 2.0000 5.0000 25 OUTLET
SC_31082 0.0150 0.2000 2.0000 5.0000 25 OUTLET
SC_31083 0.0150 0.2000 2.0000 5.0000 25 OUTLET
SC_31084 0.0150 0.2000 2.0000 5.0000 25 OUTLET
SC_31085 0.0150 0.2000 2.0000 5.0000 25 OUTLET
SC_31086 0.0150 0.2000 2.0000 5.0000 25 OUTLET
SC_31087 0.0150 0.2000 2.0000 5.0000 25 OUTLET
SC_31088 0.0150 0.2000 2.0000 5.0000 25 OUTLET
SC_31089 0.0150 0.2000 2.0000 5.0000 25 OUTLET
SC_31090 0.0150 0.2000 2.0000 5.0000 25 OUTLET
SC_31091 0.0150 0.2000 2.0000 5.0000 25 OUTLET
SC_31092 0.0150 0.2000 2.0000 5.0000 25 OUTLET
SC_31093 0.0150 0.2000 2.0000 5.0000 25 OUTLET
SC_31094 0.0150 0.2000 2.0000 5.0000 25 OUTLET
SC_31095 0.0150 0.2000 2.0000 5.0000 25 OUTLET
SC_31096 0.0150 0.2000 2.0000 5.0000 25 OUTLET
SC_31097 0.0150 0.2000 2.0000 5.0000 25 OUTLET
SC_31098 0.0150 0.2000 2.0000 5.0000 25 OUTLET
SC_31099 0.0150 0.2000 2.0000 5.0000 25 OUTLET
SC_31100 0.0150 0.2000 2.0000 5.0000 25 OUTLET
SC_31101 0.0150 0.2000 2.0000 5.0000 25 OUTLET
SC_31102 0.0150 0.2000 2.0000 5.0000 25 OUTLET
SC_31103 0.0150 0.2000 2.0000 5.0000 25 OUTLET
SC_31104 0.0150 0.2000 2.0000 5.0000 25 OUTLET
SC_31351 0.0150 0.2000 2.0000 5.0000 25 OUTLET
SC_31352 0.0150 0.2000 2.0000 5.0000 25 OUTLET
SC_31353 0.0150 0.2000 2.0000 5.0000 25 OUTLET
SC_31354 0.0150 0.2000 2.0000 5.0000 25 OUTLET
SC_31355 0.0150 0.2000 2.0000 5.0000 25 OUTLET
SC_31356 0.0150 0.2000 2.0000 5.0000 25 OUTLET
SC_31357 0.0150 0.2000 2.0000 5.0000 25 OUTLET
SC_31358 0.0150 0.2000 2.0000 5.0000 25 OUTLET
SC_31359 0.0150 0.2000 2.0000 5.0000 25 OUTLET
SC_31360 0.0150 0.2000 2.0000 5.0000 25 OUTLET
SC_31361 0.0150 0.2000 2.0000 5.0000 25 OUTLET
SC_31362 0.0150 0.2000 2.0000 5.0000 25 OUTLET
SC_31363 0.0150 0.2000 2.0000 5.0000 25 OUTLET
SC_31364 0.0150 0.2000 2.0000 5.0000 25 OUTLET
SC_31365 0.0150 0.2000 2.0000 5.0000 25 OUTLET
SC_31366 0.0150 0.2000 2.0000 5.0000 25 OUTLET
SC_31367 0.0150 0.2000 2.0000 5.0000 25 OUTLET
SC_31368 0.0150 0.2000 2.0000 5.0000 25 OUTLET
SC_31369 0.0150 0.2000 2.0000 5.0000 25 OUTLET
SC_31370 0.0150 0.2000 2.0000 5.0000 25 OUTLET
SC_31371 0.0150 0.2000 2.0000 5.0000 25 OUTLET
SC_31372 0.0150 0.2000 2.0000 5.0000 25 OUTLET
SC_31373 0.0150 0.2000 2.0000 5.0000 25 OUTLET
SC_31374 0.0150 0.2000 2.0000 5.0000 25 OUTLET
SC_31375 0.0150 0.2000 2.0000 5.0000 25 OUTLET
SC_31376 0.0150 0.2000 2.0000 5.0000 25 OUTLET
SC_31377 0.0150 0.2000 2.0000 5.0000 25 OUTLET
SC_31378 0.0150 0.2000 2.0000 5.0000 25 OUTLET
SC_31379 0.0150 0.2000 2.0000 5.0000 25 OUTLET
SC_31380 0.0150 0.2000 2.0000 5.0000 25 OUTLET
SC_31381 0.0150 0.2000 2.0000 5.0000 25 OUTLET
SC_31382 0.0150 0.2000 2.0000 5.0000 25 OUTLET
SC_31383 0.0150 0.2000 2.0000 5.0000 25 OUTLET
SC_31384 0.0150 0.2000 2.0000 5.0000 25 OUTLET
SC_31385 0.0150 0.2000 2.0000 5.0000 25 OUTLET
SC_31386 0.0150 0.2000 2.0000 5.0000 25 OUTLET
SC_31631 0.0150 0.2000 2.0000 5.0000 25 OUTLET
SC_31632 0.0150 0.2000 2.0000 5.0000 25 OUTLET
SC_31633 0.0150 0.2000 2.0000 5.0000 25 OUTLET
SC_31634 0.0150 0.2000 2.0000 5.0000 25 OUTLET
SC_31635 0.0150 0.2000 2.0000 5.0000 25 OUTLET
SC_31636 0.0150 0.2000 2.0000 5.0000 25 OUTLET
SC_31637 0.0150 0.2000 2.0000 5.0000 25 OUTLET
SC_31638 0.0150 0.2000 2.0000 5.0000 25 OUTLET
SC_31639 0.0150 0.2000 2.0000 5.0000 25 OUTLET
SC_31640 0.0150 0.2000 2.0000 5.0000 25 OUTLET
SC_31641 0.0150 0.2000 2.0000 5.0000 25 OUTLET
SC_31642 0.0150 0.2000 2.0000 5.0000 25 OUTLET
SC_31643 0.0150 0.2000 2.0000 5.0000 25 OUTLET
SC_31644 0.0150 0.2000 2.0000 5.0000 25 OUTLET
SC_31645 0.0150 0.2000 2.0000 5.0000 25 OUTLET
SC_31646 0.0150 0.2000 2.0000 5.0000 25 OUTLET
SC_31647 0.0150 0.2000 2.0000 5.0000 25 OUTLET
SC_31648 0.0150 0.2000 2.0000 5.0000 25 OUTLET
SC_31649 0.0150 0.2000 2.0000 5.0000 25 OUTLET
SC_31650 0.0150 0.2000 2.0000 5.0000 25 OUTLET
SC_31651 0.0150 0.2000 2.0000 5.0000 25 OUTLET
SC_31652 0.0150 0.2000 2.0000 5.0000 25 OUTLET
SC_31653 0.0150 0.2000 2.0000 5.0000 25 OUTLET
SC_31654 0.0150 0.2000 2.0000 5.0000 25 OUTLET
SC_31655 0.0150 0.2000 2.0000 5.0000 25 OUTLET
SC_31656 0.0150 0.2000 2.0000 5.0000 25 OUTLET
SC_31657 0.0150 0.2000 2.0000 5.0000 25 OUTLET
SC_31658 0.0150 0.2000 2.0000 5.0000 25 OUTLET
SC_31659 0.0150 0.2000 2.0000 5.0000 25 OUTLET
SC_31660 0.0150 0.2000 2.0000 5.0000 25 OUTLET
SC_31661 0.0150 0.2000 2.0000 5.0000 25 OUTLET
SC_31662 0.0150 0.2000 2.0000 5.0000 25 OUTLET
SC_31663 0.0150 0.2000 2.0000 5.0000 25 OUTLET
SC_31666 0.0150 0.2000 2.0000 5.0000 25 OUTLET
SC_31667 0.0150 0.2000 2.0000 5.0000 25 OUTLET
SC_31912 0.0150 0.2000 2.0000 5.0000 25 OUTLET
SC_31913 0.0150 0.2000 2.0000 5.0000 25 OUTLET
SC_31914 0.0150 0.2000 2.0000 5.0000 25 OUTLET
SC_31915 0.0150 0.2000 2.0000 5.0000 25 OUTLET
SC_31916 0.0150 0.2000 2.0000 5.0000 25 OUTLET
SC_31917 0.0150 0.2000 2.0000 5.0000 25 OUTLET
SC_31918 0.0150 0.2000 2.0000 5.0000 25 OUTLET
SC_31919 0.0150 0.2000 2.0000 5.0000 25 OUTLET
SC_31920 0.0150 0.2000 2.0000 5.0000 25 OUTLET
SC_31921 0.0150 0.2000 2.0000 5.0000 25 OUTLET
SC_31922 0.0150 0.2000 2.0000 5.0000 25 OUTLET
SC_31923 0.0150 0.2000 2.0000 5.0000 25 OUTLET
SC_31924 0.0150 0.2000 2.0000 5.0000 25 OUTLET
SC_31925 0.0150 0.2000 2.0000 5.0000 25 OUTLET
SC_31926 0.0150 0.2000 2.0000 5.0000 25 OUTLET
SC_31927 0.0150 0.2000 2.0000 5.0000 25 OUTLET
SC_31928 0.0150 0.2000 2.0000 5.0000 25 OUTLET
SC_31929 0.0150 0.2000 2.0000 5.0000 25 OUTLET
SC_31930 0.0150 0.2000 2.0000 5.0000 25 OUTLET
SC_31931 0.0150 0.2000 2.0000 5.0000 25 OUTLET
SC_31932 0.0150 0.2000 2.0000 5.0000 25 OUTLET
SC_31933 0.0150 0.2000 2.0000 5.0000 25 OUTLET
SC_31934 0.0150 0.2000 2.0000 5.0000 25 OUTLET
SC_31935 0.0150 0.2000 2.0000 5.0000 25 OUTLET
SC_31936 0.0150 0.2000 2.0000 5.0000 25 OUTLET
SC_31937 0.0150 0.2000 2.0000 5.0000 25 OUTLET
SC_31938 0.0150 0.2000 2.0000 5.0000 25 OUTLET
SC_31939 0.0150 0.2000 2.0000 5.0000 25 OUTLET
SC_31940 0.0150 0.2000 2.0000 5.0000 25 OUTLET
SC_31941 0.0150 0.2000 2.0000 5.0000 25 OUTLET
SC_31942 0.0150 0.2000 2.0000 5.0000 25 OUTLET
SC_31943 0.0150 0.2000 2.0000 5.0000 25 OUTLET
SC_32193 0.0150 0.2000 2.0000 5.0000 25 OUTLET
SC_32194 0.0150 0.2000 2.0000 5.0000 25 OUTLET
SC_32195 0.0150 0.2000 2.0000 5.0000 25 OUTLET
SC_32196 0.0150 0.2000 2.0000 5.0000 25 OUTLET
SC_32197 0.0150 0.2000 2.0000 5.0000 25 OUTLET
SC_32198 0.0150 0.2000 2.0000 5.0000 25 OUTLET
SC_32199 0.0150 0.2000 2.0000 5.0000 25 OUTLET
SC_32200 0.0150 0.2000 2.0000 5.0000 25 OUTLET
SC_32201 0.0150 0.2000 2.0000 5.0000 25 OUTLET
SC_32202 0.0150 0.2000 2.0000 5.0000 25 OUTLET
SC_32203 0.0150 0.2000 2.0000 5.0000 25 OUTLET
SC_32204 0.0150 0.2000 2.0000 5.0000 25 OUTLET
SC_32205 0.0150 0.2000 2.0000 5.0000 25 OUTLET
SC_32206 0.0150 0.2000 2.0000 5.0000 25 OUTLET
SC_32207 0.0150 0.2000 2.0000 5.0000 25 OUTLET
SC_32208 0.0150 0.2000 2.0000 5.0000 25 OUTLET
SC_32209 0.0150 0.2000 2.0000 5.0000 25 OUTLET
SC_32210 0.0150 0.2000 2.0000 5.0000 25 OUTLET
SC_32211 0.0150 0.2000 2.0000 5.0000 25 OUTLET
SC_32212 0.0150 0.2000 2.0000 5.0000 25 OUTLET
SC_32213 0.0150 0.2000 2.0000 5.0000 25 OUTLET
SC_32214 0.0150 0.2000 2.0000 5.0000 25 OUTLET
SC_32215 0.0150 0.2000 2.0000 5.0000 25 OUTLET
SC_32216 0.0150 0.2000 2.0000 5.0000 25 OUTLET
SC_32217 0.0150 0.2000 2.0000 5.0000 25 OUTLET
SC_32218 0.0150 0.2000 2.0000 5.0000 25 OUTLET
SC_32219 0.0150 0.2000 2.0000 5.0000 25 OUTLET
SC_32220 0.0150 0.2000 2.0000 5.0000 25 OUTLET
SC_32221 0.0150 0.2000 2.0000 5.0000 25 OUTLET
SC_32222 0.0150 0.2000 2.0000 5.0000 25 OUTLET
SC_32223 0.0150 0.2000 2.0000 5.0000 25 OUTLET
SC_32473 0.0150 0.2000 2.0000 5.0000 25 OUTLET
SC_32474 0.0150 0.2000 2.0000 5.0000 25 OUTLET
SC_32475 0.0150 0.2000 2.0000 5.0000 25 OUTLET
SC_32476 0.0150 0.2000 2.0000 5.0000 25 OUTLET
SC_32477 0.0150 0.2000 2.0000 5.0000 25 OUTLET
SC_32478 0.0150 0.2000 2.0000 5.0000 25 OUTLET
SC_32479 0.0150 0.2000 2.0000 5.0000 25 OUTLET
SC_32480 0.0150 0.2000 2.0000 5.0000 25 OUTLET
SC_32481 0.0150 0.2000 2.0000 5.0000 25 OUTLET
SC_32482 0.0150 0.2000 2.0000 5.0000 25 OUTLET
SC_32483 0.0150 0.2000 2.0000 5.0000 25 OUTLET
SC_32484 0.0150 0.2000 2.0000 5.0000 25 OUTLET
SC_32485 0.0150 0.2000 2.0000 5.0000 25 OUTLET
SC_32486 0.0150 0.2000 2.0000 5.0000 25 OUTLET
SC_32487 0.0150 0.2000 2.0000 5.0000 25 OUTLET
SC_32488 0.0150 0.2000 2.0000 5.0000 25 OUTLET
SC_32489 0.0150 0.2000 2.0000 5.0000 25 OUTLET
SC_32490 0.0150 0.2000 2.0000 5.0000 25 OUTLET
SC_32491 0.0150 0.2000 2.0000 5.0000 25 OUTLET
SC_32492 0.0150 0.2000 2.0000 5.0000 25 OUTLET
SC_32493 0.0150 0.2000 2.0000 5.0000 25 OUTLET
SC_32494 0.0150 0.2000 2.0000 5.0000 25 OUTLET
SC_32495 0.0150 0.2000 2.0000 5.0000 25 OUTLET
SC_32496 0.0150 0.2000 2.0000 5.0000 25 OUTLET
SC_32497 0.0150 0.2000 2.0000 5.0000 25 OUTLET
SC_32498 0.0150 0.2000 2.0000 5.0000 25 OUTLET
SC_32499 0.0150 0.2000 2.0000 5.0000 25 OUTLET
SC_32500 0.0150 0.2000 2.0000 5.0000 25 OUTLET
SC_32501 0.0150 0.2000 2.0000 5.0000 25 OUTLET
SC_32502 0.0150 0.2000 2.0000 5.0000 25 OUTLET
SC_32759 0.0150 0.2000 2.0000 5.0000 25 OUTLET
SC_32760 0.0150 0.2000 2.0000 5.0000 25 OUTLET
SC_32761 0.0150 0.2000 2.0000 5.0000 25 OUTLET
SC_32762 0.0150 0.2000 2.0000 5.0000 25 OUTLET
SC_32763 0.0150 0.2000 2.0000 5.0000 25 OUTLET
SC_32764 0.0150 0.2000 2.0000 5.0000 25 OUTLET
SC_32765 0.0150 0.2000 2.0000 5.0000 25 OUTLET
SC_32766 0.0150 0.2000 2.0000 5.0000 25 OUTLET
SC_32767 0.0150 0.2000 2.0000 5.0000 25 OUTLET
SC_32768 0.0150 0.2000 2.0000 5.0000 25 OUTLET
SC_32769 0.0150 0.2000 2.0000 5.0000 25 OUTLET
SC_32770 0.0150 0.2000 2.0000 5.0000 25 OUTLET
SC_32771 0.0150 0.2000 2.0000 5.0000 25 OUTLET
SC_32772 0.0150 0.2000 2.0000 5.0000 25 OUTLET
SC_32773 0.0150 0.2000 2.0000 5.0000 25 OUTLET
SC_32774 0.0150 0.2000 2.0000 5.0000 25 OUTLET
SC_32775 0.0150 0.2000 2.0000 5.0000 25 OUTLET
SC_32776 0.0150 0.2000 2.0000 5.0000 25 OUTLET
SC_32777 0.0150 0.2000 2.0000 5.0000 25 OUTLET
SC_32778 0.0150 0.2000 2.0000 5.0000 25 OUTLET
SC_32779 0.0150 0.2000 2.0000 5.0000 25 OUTLET
SC_32780 0.0150 0.2000 2.0000 5.0000 25 OUTLET
SC_32781 0.0150 0.2000 2.0000 5.0000 25 OUTLET
SC_33039 0.0150 0.2000 2.0000 5.0000 25 OUTLET
SC_33040 0.0150 0.2000 2.0000 5.0000 25 OUTLET
SC_33041 0.0150 0.2000 2.0000 5.0000 25 OUTLET
SC_33042 0.0150 0.2000 2.0000 5.0000 25 OUTLET
SC_33043 0.0150 0.2000 2.0000 5.0000 25 OUTLET
SC_33044 0.0150 0.2000 2.0000 5.0000 25 OUTLET
SC_33045 0.0150 0.2000 2.0000 5.0000 25 OUTLET
SC_33046 0.0150 0.2000 2.0000 5.0000 25 OUTLET
SC_33047 0.0150 0.2000 2.0000 5.0000 25 OUTLET
SC_33048 0.0150 0.2000 2.0000 5.0000 25 OUTLET
SC_33049 0.0150 0.2000 2.0000 5.0000 25 OUTLET
SC_33050 0.0150 0.2000 2.0000 5.0000 25 OUTLET
SC_33051 0.0150 0.2000 2.0000 5.0000 25 OUTLET
SC_33052 0.0150 0.2000 2.0000 5.0000 25 OUTLET
SC_33053 0.0150 0.2000 2.0000 5.0000 25 OUTLET
SC_33054 0.0150 0.2000 2.0000 5.0000 25 OUTLET
SC_33055 0.0150 0.2000 2.0000 5.0000 25 OUTLET
SC_33056 0.0150 0.2000 2.0000 5.0000 25 OUTLET
SC_33057 0.0150 0.2000 2.0000 5.0000 25 OUTLET
SC_33058 0.0150 0.2000 2.0000 5.0000 25 OUTLET
SC_33316 0.0150 0.2000 2.0000 5.0000 25 OUTLET
SC_33317 0.0150 0.2000 2.0000 5.0000 25 OUTLET
SC_33318 0.0150 0.2000 2.0000 5.0000 25 OUTLET
SC_33319 0.0150 0.2000 2.0000 5.0000 25 OUTLET
SC_33320 0.0150 0.2000 2.0000 5.0000 25 OUTLET
SC_33321 0.0150 0.2000 2.0000 5.0000 25 OUTLET
SC_33322 0.0150 0.2000 2.0000 5.0000 25 OUTLET
SC_33323 0.0150 0.2000 2.0000 5.0000 25 OUTLET
SC_33324 0.0150 0.2000 2.0000 5.0000 25 OUTLET
SC_33325 0.0150 0.2000 2.0000 5.0000 25 OUTLET
SC_33326 0.0150 0.2000 2.0000 5.0000 25 OUTLET
SC_33327 0.0150 0.2000 2.0000 5.0000 25 OUTLET
SC_33328 0.0150 0.2000 2.0000 5.0000 25 OUTLET
SC_33329 0.0150 0.2000 2.0000 5.0000 25 OUTLET
SC_33330 0.0150 0.2000 2.0000 5.0000 25 OUTLET
SC_33331 0.0150 0.2000 2.0000 5.0000 25 OUTLET
SC_33332 0.0150 0.2000 2.0000 5.0000 25 OUTLET
SC_33333 0.0150 0.2000 2.0000 5.0000 25 OUTLET
SC_33334 0.0150 0.2000 2.0000 5.0000 25 OUTLET
SC_33593 0.0150 0.2000 2.0000 5.0000 25 OUTLET
SC_33594 0.0150 0.2000 2.0000 5.0000 25 OUTLET
SC_33595 0.0150 0.2000 2.0000 5.0000 25 OUTLET
SC_33596 0.0150 0.2000 2.0000 5.0000 25 OUTLET
SC_33597 0.0150 0.2000 2.0000 5.0000 25 OUTLET
SC_33598 0.0150 0.2000 2.0000 5.0000 25 OUTLET
SC_33599 0.0150 0.2000 2.0000 5.0000 25 OUTLET
SC_33600 0.0150 0.2000 2.0000 5.0000 25 OUTLET
SC_33601 0.0150 0.2000 2.0000 5.0000 25 OUTLET
SC_33602 0.0150 0.2000 2.0000 5.0000 25 OUTLET
SC_33603 0.0150 0.2000 2.0000 5.0000 25 OUTLET
SC_33604 0.0150 0.2000 2.0000 5.0000 25 OUTLET
SC_33605 0.0150 0.2000 2.0000 5.0000 25 OUTLET
SC_33606 0.0150 0.2000 2.0000 5.0000 25 OUTLET
SC_33607 0.0150 0.2000 2.0000 5.0000 25 OUTLET
SC_33608 0.0150 0.2000 2.0000 5.0000 25 OUTLET
SC_33609 0.0150 0.2000 2.0000 5.0000 25 OUTLET
SC_33869 0.0150 0.2000 2.0000 5.0000 25 OUTLET
SC_33870 0.0150 0.2000 2.0000 5.0000 25 OUTLET
SC_33871 0.0150 0.2000 2.0000 5.0000 25 OUTLET
SC_33872 0.0150 0.2000 2.0000 5.0000 25 OUTLET
SC_33873 0.0150 0.2000 2.0000 5.0000 25 OUTLET
SC_33874 0.0150 0.2000 2.0000 5.0000 25 OUTLET
SC_33875 0.0150 0.2000 2.0000 5.0000 25 OUTLET
SC_33876 0.0150 0.2000 2.0000 5.0000 25 OUTLET
SC_33877 0.0150 0.2000 2.0000 5.0000 25 OUTLET
SC_33878 0.0150 0.2000 2.0000 5.0000 25 OUTLET
SC_33879 0.0150 0.2000 2.0000 5.0000 25 OUTLET
SC_33880 0.0150 0.2000 2.0000 5.0000 25 OUTLET
SC_33881 0.0150 0.2000 2.0000 5.0000 25 OUTLET
SC_33882 0.0150 0.2000 2.0000 5.0000 25 OUTLET
SC_33883 0.0150 0.2000 2.0000 5.0000 25 OUTLET
SC_34144 0.0150 0.2000 2.0000 5.0000 25 OUTLET
SC_34145 0.0150 0.2000 2.0000 5.0000 25 OUTLET
SC_34146 0.0150 0.2000 2.0000 5.0000 25 OUTLET
SC_34147 0.0150 0.2000 2.0000 5.0000 25 OUTLET
SC_34148 0.0150 0.2000 2.0000 5.0000 25 OUTLET
SC_34149 0.0150 0.2000 2.0000 5.0000 25 OUTLET
SC_34150 0.0150 0.2000 2.0000 5.0000 25 OUTLET
SC_34151 0.0150 0.2000 2.0000 5.0000 25 OUTLET
SC_34152 0.0150 0.2000 2.0000 5.0000 25 OUTLET
SC_34153 0.0150 0.2000 2.0000 5.0000 25 OUTLET
SC_34155 0.0150 0.2000 2.0000 5.0000 25 OUTLET
SC_34418 0.0150 0.2000 2.0000 5.0000 25 OUTLET
SC_34419 0.0150 0.2000 2.0000 5.0000 25 OUTLET
SC_34420 0.0150 0.2000 2.0000 5.0000 25 OUTLET
SC_34421 0.0150 0.2000 2.0000 5.0000 25 OUTLET
SC_34422 0.0150 0.2000 2.0000 5.0000 25 OUTLET
SC_34423 0.0150 0.2000 2.0000 5.0000 25 OUTLET
SC_34424 0.0150 0.2000 2.0000 5.0000 25 OUTLET
SC_34694 0.0150 0.2000 2.0000 5.0000 25 OUTLET
SC_34695 0.0150 0.2000 2.0000 5.0000 25 OUTLET
SC_34696 0.0150 0.2000 2.0000 5.0000 25 OUTLET
SC_34697 0.0150 0.2000 2.0000 5.0000 25 OUTLET
SC_34698 0.0150 0.2000 2.0000 5.0000 25 OUTLET
SC_34969 0.0150 0.2000 2.0000 5.0000 25 OUTLET
SC_34970 0.0150 0.2000 2.0000 5.0000 25 OUTLET

[INFILTRATION]
SC_22963 50.0000 5.0000 3.0000 7.0000 0.0
SC_22964 50.0000 5.0000 3.0000 7.0000 0.0
SC_23248 50.0000 5.0000 3.0000 7.0000 0.0
SC_23249 50.0000 5.0000 3.0000 7.0000 0.0
SC_23250 50.0000 5.0000 3.0000 7.0000 0.0
SC_23251 50.0000 5.0000 3.0000 7.0000 0.0
SC_23252 50.0000 5.0000 3.0000 7.0000 0.0
SC_23253 50.0000 5.0000 3.0000 7.0000 0.0
SC_23536 50.0000 5.0000 3.0000 7.0000 0.0
SC_23537 50.0000 5.0000 3.0000 7.0000 0.0
SC_23538 50.0000 5.0000 3.0000 7.0000 0.0
SC_23539 50.0000 5.0000 3.0000 7.0000 0.0
SC_23540 50.0000 5.0000 3.0000 7.0000 0.0
SC_23541 50.0000 5.0000 3.0000 7.0000 0.0
SC_23542 50.0000 5.0000 3.0000 7.0000 0.0
SC_23543 50.0000 5.0000 3.0000 7.0000 0.0
SC_23823 50.0000 5.0000 3.0000 7.0000 0.0
SC_23824 50.0000 5.0000 3.0000 7.0000 0.0
SC_23825 50.0000 5.0000 3.0000 7.0000 0.0
SC_23826 50.0000 5.0000 3.0000 7.0000 0.0
SC_23827 50.0000 5.0000 3.0000 7.0000 0.0
SC_23828 50.0000 5.0000 3.0000 7.0000 0.0
SC_23829 50.0000 5.0000 3.0000 7.0000 0.0
SC_23830 50.0000 5.0000 3.0000 7.0000 0.0
SC_23831 50.0000 5.0000 3.0000 7.0000 0.0
SC_23832 50.0000 5.0000 3.0000 7.0000 0.0
SC_24105 50.0000 5.0000 3.0000 7.0000 0.0
SC_24106 50.0000 5.0000 3.0000 7.0000 0.0
SC_24107 50.0000 5.0000 3.0000 7.0000 0.0
SC_24108 50.0000 5.0000 3.0000 7.0000 0.0
SC_24109 50.0000 5.0000 3.0000 7.0000 0.0
SC_24110 50.0000 5.0000 3.0000 7.0000 0.0
SC_24111 50.0000 5.0000 3.0000 7.0000 0.0
SC_24112 50.0000 5.0000 3.0000 7.0000 0.0
SC_24113 50.0000 5.0000 3.0000 7.0000 0.0
SC_24114 50.0000 5.0000 3.0000 7.0000 0.0
SC_24115 50.0000 5.0000 3.0000 7.0000 0.0
SC_24116 50.0000 5.0000 3.0000 7.0000 0.0
SC_24117 50.0000 5.0000 3.0000 7.0000 0.0
SC_24118 50.0000 5.0000 3.0000 7.0000 0.0
SC_24387 50.0000 5.0000 3.0000 7.0000 0.0
SC_24388 50.0000 5.0000 3.0000 7.0000 0.0
SC_24389 50.0000 5.0000 3.0000 7.0000 0.0
SC_24390 50.0000 5.0000 3.0000 7.0000 0.0
SC_24391 50.0000 5.0000 3.0000 7.0000 0.0
SC_24392 50.0000 5.0000 3.0000 7.0000 0.0
SC_24393 50.0000 5.0000 3.0000 7.0000 0.0
SC_24394 50.0000 5.0000 3.0000 7.0000 0.0
SC_24395 50.0000 5.0000 3.0000 7.0000 0.0
SC_24396 50.0000 5.0000 3.0000 7.0000 0.0
SC_24397 50.0000 5.0000 3.0000 7.0000 0.0
SC_24398 50.0000 5.0000 3.0000 7.0000 0.0
SC_24399 50.0000 5.0000 3.0000 7.0000 0.0
SC_24400 50.0000 5.0000 3.0000 7.0000 0.0
SC_24401 50.0000 5.0000 3.0000 7.0000 0.0
SC_24402 50.0000 5.0000 3.0000 7.0000 0.0
SC_24668 50.0000 5.0000 3.0000 7.0000 0.0
SC_24669 50.0000 5.0000 3.0000 7.0000 0.0
SC_24670 50.0000 5.0000 3.0000 7.0000 0.0
SC_24671 50.0000 5.0000 3.0000 7.0000 0.0
SC_24672 50.0000 5.0000 3.0000 7.0000 0.0
SC_24673 50.0000 5.0000 3.0000 7.0000 0.0
SC_24674 50.0000 5.0000 3.0000 7.0000 0.0
SC_24675 50.0000 5.0000 3.0000 7.0000 0.0
SC_24676 50.0000 5.0000 3.0000 7.0000 0.0
SC_24677 50.0000 5.0000 3.0000 7.0000 0.0
SC_24678 50.0000 5.0000 3.0000 7.0000 0.0
SC_24679 50.0000 5.0000 3.0000 7.0000 0.0
SC_24680 50.0000 5.0000 3.0000 7.0000 0.0
SC_24681 50.0000 5.0000 3.0000 7.0000 0.0
SC_24682 50.0000 5.0000 3.0000 7.0000 0.0
SC_24683 50.0000 5.0000 3.0000 7.0000 0.0
SC_24684 50.0000 5.0000 3.0000 7.0000 0.0
SC_24685 50.0000 5.0000 3.0000 7.0000 0.0
SC_24692 50.0000 5.0000 3.0000 7.0000 0.0
SC_24693 50.0000 5.0000 3.0000 7.0000 0.0
SC_24694 50.0000 5.0000 3.0000 7.0000 0.0
SC_24695 50.0000 5.0000 3.0000 7.0000 0.0
SC_24945 50.0000 5.0000 3.0000 7.0000 0.0
SC_24946 50.0000 5.0000 3.0000 7.0000 0.0
SC_24947 50.0000 5.0000 3.0000 7.0000 0.0
SC_24948 50.0000 5.0000 3.0000 7.0000 0.0
SC_24949 50.0000 5.0000 3.0000 7.0000 0.0
SC_24950 50.0000 5.0000 3.0000 7.0000 0.0
SC_24951 50.0000 5.0000 3.0000 7.0000 0.0
SC_24952 50.0000 5.0000 3.0000 7.0000 0.0
SC_24953 50.0000 5.0000 3.0000 7.0000 0.0
SC_24954 50.0000 5.0000 3.0000 7.0000 0.0
SC_24955 50.0000 5.0000 3.0000 7.0000 0.0
SC_24956 50.0000 5.0000 3.0000 7.0000 0.0
SC_24957 50.0000 5.0000 3.0000 7.0000 0.0
SC_24958 50.0000 5.0000 3.0000 7.0000 0.0
SC_24959 50.0000 5.0000 3.0000 7.0000 0.0
SC_24960 50.0000 5.0000 3.0000 7.0000 0.0
SC_24961 50.0000 5.0000 3.0000 7.0000 0.0
SC_24962 50.0000 5.0000 3.0000 7.0000 0.0
SC_24963 50.0000 5.0000 3.0000 7.0000 0.0
SC_24964 50.0000 5.0000 3.0000 7.0000 0.0
SC_24965 50.0000 5.0000 3.0000 7.0000 0.0
SC_24966 50.0000 5.0000 3.0000 7.0000 0.0
SC_24967 50.0000 5.0000 3.0000 7.0000 0.0
SC_24968 50.0000 5.0000 3.0000 7.0000 0.0
SC_24969 50.0000 5.0000 3.0000 7.0000 0.0
SC_24970 50.0000 5.0000 3.0000 7.0000 0.0
SC_24971 50.0000 5.0000 3.0000 7.0000 0.0
SC_24972 50.0000 5.0000 3.0000 7.0000 0.0
SC_24973 50.0000 5.0000 3.0000 7.0000 0.0
SC_24974 50.0000 5.0000 3.0000 7.0000 0.0
SC_25224 50.0000 5.0000 3.0000 7.0000 0.0
SC_25225 50.0000 5.0000 3.0000 7.0000 0.0
SC_25226 50.0000 5.0000 3.0000 7.0000 0.0
SC_25227 50.0000 5.0000 3.0000 7.0000 0.0
SC_25228 50.0000 5.0000 3.0000 7.0000 0.0
SC_25229 50.0000 5.0000 3.0000 7.0000 0.0
SC_25230 50.0000 5.0000 3.0000 7.0000 0.0
SC_25231 50.0000 5.0000 3.0000 7.0000 0.0
SC_25232 50.0000 5.0000 3.0000 7.0000 0.0
SC_25233 50.0000 5.0000 3.0000 7.0000 0.0
SC_25234 50.0000 5.0000 3.0000 7.0000 0.0
SC_25235 50.0000 5.0000 3.0000 7.0000 0.0
SC_25236 50.0000 5.0000 3.0000 7.0000 0.0
SC_25237 50.0000 5.0000 3.0000 7.0000 0.0
SC_25238 50.0000 5.0000 3.0000 7.0000 0.0
SC_25239 50.0000 5.0000 3.0000 7.0000 0.0
SC_25240 50.0000 5.0000 3.0000 7.0000 0.0
SC_25241 50.0000 5.0000 3.0000 7.0000 0.0
SC_25242 50.0000 5.0000 3.0000 7.0000 0.0
SC_25243 50.0000 5.0000 3.0000 7.0000 0.0
SC_25244 50.0000 5.0000 3.0000 7.0000 0.0
SC_25245 50.0000 5.0000 3.0000 7.0000 0.0
SC_25246 50.0000 5.0000 3.0000 7.0000 0.0
SC_25247 50.0000 5.0000 3.0000 7.0000 0.0
SC_25248 50.0000 5.0000 3.0000 7.0000 0.0
SC_25249 50.0000 5.0000 3.0000 7.0000 0.0
SC_25250 50.0000 5.0000 3.0000 7.0000 0.0
SC_25251 50.0000 5.0000 3.0000 7.0000 0.0
SC_25252 50.0000 5.0000 3.0000 7.0000 0.0
SC_25253 50.0000 5.0000 3.0000 7.0000 0.0
SC_25501 50.0000 5.0000 3.0000 7.0000 0.0
SC_25502 50.0000 5.0000 3.0000 7.0000 0.0
SC_25503 50.0000 5.0000 3.0000 7.0000 0.0
SC_25504 50.0000 5.0000 3.0000 7.0000 0.0
SC_25505 50.0000 5.0000 3.0000 7.0000 0.0
SC_25506 50.0000 5.0000 3.0000 7.0000 0.0
SC_25507 50.0000 5.0000 3.0000 7.0000 0.0
SC_25508 50.0000 5.0000 3.0000 7.0000 0.0
SC_25509 50.0000 5.0000 3.0000 7.0000 0.0
SC_25510 50.0000 5.0000 3.0000 7.0000 0.0
SC_25511 50.0000 5.0000 3.0000 7.0000 0.0
SC_25512 50.0000 5.0000 3.0000 7.0000 0.0
SC_25513 50.0000 5.0000 3.0000 7.0000 0.0
SC_25514 50.0000 5.0000 3.0000 7.0000 0.0
SC_25515 50.0000 5.0000 3.0000 7.0000 0.0
SC_25516 50.0000 5.0000 3.0000 7.0000 0.0
SC_25517 50.0000 5.0000 3.0000 7.0000 0.0
SC_25518 50.0000 5.0000 3.0000 7.0000 0.0
SC_25519 50.0000 5.0000 3.0000 7.0000 0.0
SC_25520 50.0000 5.0000 3.0000 7.0000 0.0
SC_25521 50.0000 5.0000 3.0000 7.0000 0.0
SC_25522 50.0000 5.0000 3.0000 7.0000 0.0
SC_25523 50.0000 5.0000 3.0000 7.0000 0.0
SC_25524 50.0000 5.0000 3.0000 7.0000 0.0
SC_25525 50.0000 5.0000 3.0000 7.0000 0.0
SC_25526 50.0000 5.0000 3.0000 7.0000 0.0
SC_25527 50.0000 5.0000 3.0000 7.0000 0.0
SC_25528 50.0000 5.0000 3.0000 7.0000 0.0
SC_25529 50.0000 5.0000 3.0000 7.0000 0.0
SC_25530 50.0000 5.0000 3.0000 7.0000 0.0
SC_25531 50.0000 5.0000 3.0000 7.0000 0.0
SC_25532 50.0000 5.0000 3.0000 7.0000 0.0
SC_25778 50.0000 5.0000 3.0000 7.0000 0.0
SC_25779 50.0000 5.0000 3.0000 7.0000 0.0
SC_25780 50.0000 5.0000 3.0000 7.0000 0.0
SC_25781 50.0000 5.0000 3.0000 7.0000 0.0
SC_25782 50.0000 5.0000 3.0000 7.0000 0.0
SC_25783 50.0000 5.0000 3.0000 7.0000 0.0
SC_25784 50.0000 5.0000 3.0000 7.0000 0.0
SC_25785 50.0000 5.0000 3.0000 7.0000 0.0
SC_25786 50.0000 5.0000 3.0000 7.0000 0.0
SC_25787 50.0000 5.0000 3.0000 7.0000 0.0
SC_25788 50.0000 5.0000 3.0000 7.0000 0.0
SC_25789 50.0000 5.0000 3.0000 7.0000 0.0
SC_25790 50.0000 5.0000 3.0000 7.0000 0.0
SC_25791 50.0000 5.0000 3.0000 7.0000 0.0
SC_25792 50.0000 5.0000 3.0000 7.0000 0.0
SC_25793 50.0000 5.0000 3.0000 7.0000 0.0
SC_25794 50.0000 5.0000 3.0000 7.0000 0.0
SC_25795 50.0000 5.0000 3.0000 7.0000 0.0
SC_25796 50.0000 5.0000 3.0000 7.0000 0.0
SC_25797 50.0000 5.0000 3.0000 7.0000 0.0
SC_25798 50.0000 5.0000 3.0000 7.0000 0.0
SC_25799 50.0000 5.0000 3.0000 7.0000 0.0
SC_25800 50.0000 5.0000 3.0000 7.0000 0.0
SC_25801 50.0000 5.0000 3.0000 7.0000 0.0
SC_25802 50.0000 5.0000 3.0000 7.0000 0.0
SC_25803 50.0000 5.0000 3.0000 7.0000 0.0
SC_25804 50.0000 5.0000 3.0000 7.0000 0.0
SC_25805 50.0000 5.0000 3.0000 7.0000 0.0
SC_25806 50.0000 5.0000 3.0000 7.0000 0.0
SC_25807 50.0000 5.0000 3.0000 7.0000 0.0
SC_25808 50.0000 5.0000 3.0000 7.0000 0.0
SC_25809 50.0000 5.0000 3.0000 7.0000 0.0
SC_25810 50.0000 5.0000 3.0000 7.0000 0.0
SC_26054 50.0000 5.0000 3.0000 7.0000 0.0
SC_26055 50.0000 5.0000 3.0000 7.0000 0.0
SC_26057 50.0000 5.0000 3.0000 7.0000 0.0
SC_26058 50.0000 5.0000 3.0000 7.0000 0.0
SC_26059 50.0000 5.0000 3.0000 7.0000 0.0
SC_26060 50.0000 5.0000 3.0000 7.0000 0.0
SC_26061 50.0000 5.0000 3.0000 7.0000 0.0
SC_26062 50.0000 5.0000 3.0000 7.0000 0.0
SC_26063 50.0000 5.0000 3.0000 7.0000 0.0
SC_26064 50.0000 5.0000 3.0000 7.0000 0.0
SC_26065 50.0000 5.0000 3.0000 7.0000 0.0
SC_26066 50.0000 5.0000 3.0000 7.0000 0.0
SC_26067 50.0000 5.0000 3.0000 7.0000 0.0
SC_26068 50.0000 5.0000 3.0000 7.0000 0.0
SC_26069 50.0000 5.0000 3.0000 7.0000 0.0
SC_26070 50.0000 5.0000 3.0000 7.0000 0.0
SC_26071 50.0000 5.0000 3.0000 7.0000 0.0
SC_26072 50.0000 5.0000 3.0000 7.0000 0.0
SC_26073 50.0000 5.0000 3.0000 7.0000 0.0
SC_26074 50.0000 5.0000 3.0000 7.0000 0.0
SC_26075 50.0000 5.0000 3.0000 7.0000 0.0
SC_26076 50.0000 5.0000 3.0000 7.0000 0.0
SC_26077 50.0000 5.0000 3.0000 7.0000 0.0
SC_26078 50.0000 5.0000 3.0000 7.0000 0.0
SC_26079 50.0000 5.0000 3.0000 7.0000 0.0
SC_26080 50.0000 5.0000 3.0000 7.0000 0.0
SC_26081 50.0000 5.0000 3.0000 7.0000 0.0
SC_26082 50.0000 5.0000 3.0000 7.0000 0.0
SC_26083 50.0000 5.0000 3.0000 7.0000 0.0
SC_26084 50.0000 5.0000 3.0000 7.0000 0.0
SC_26085 50.0000 5.0000 3.0000 7.0000 0.0
SC_26086 50.0000 5.0000 3.0000 7.0000 0.0
SC_26087 50.0000 5.0000 3.0000 7.0000 0.0
SC_26336 50.0000 5.0000 3.0000 7.0000 0.0
SC_26337 50.0000 5.0000 3.0000 7.0000 0.0
SC_26338 50.0000 5.0000 3.0000 7.0000 0.0
SC_26339 50.0000 5.0000 3.0000 7.0000 0.0
SC_26340 50.0000 5.0000 3.0000 7.0000 0.0
SC_26341 50.0000 5.0000 3.0000 7.0000 0.0
SC_26342 50.0000 5.0000 3.0000 7.0000 0.0
SC_26343 50.0000 5.0000 3.0000 7.0000 0.0
SC_26344 50.0000 5.0000 3.0000 7.0000 0.0
SC_26345 50.0000 5.0000 3.0000 7.0000 0.0
SC_26346 50.0000 5.0000 3.0000 7.0000 0.0
SC_26347 50.0000 5.0000 3.0000 7.0000 0.0
SC_26348 50.0000 5.0000 3.0000 7.0000 0.0
SC_26349 50.0000 5.0000 3.0000 7.0000 0.0
SC_26350 50.0000 5.0000 3.0000 7.0000 0.0
SC_26351 50.0000 5.0000 3.0000 7.0000 0.0
SC_26352 50.0000 5.0000 3.0000 7.0000 0.0
SC_26353 50.0000 5.0000 3.0000 7.0000 0.0
SC_26354 50.0000 5.0000 3.0000 7.0000 0.0
SC_26355 50.0000 5.0000 3.0000 7.0000 0.0
SC_26356 50.0000 5.0000 3.0000 7.0000 0.0
SC_26357 50.0000 5.0000 3.0000 7.0000 0.0
SC_26358 50.0000 5.0000 3.0000 7.0000 0.0
SC_26359 50.0000 5.0000 3.0000 7.0000 0.0
SC_26360 50.0000 5.0000 3.0000 7.0000 0.0
SC_26361 50.0000 5.0000 3.0000 7.0000 0.0
SC_26362 50.0000 5.0000 3.0000 7.0000 0.0
SC_26363 50.0000 5.0000 3.0000 7.0000 0.0
SC_26364 50.0000 5.0000 3.0000 7.0000 0.0
SC_26368 50.0000 5.0000 3.0000 7.0000 0.0
SC_26369 50.0000 5.0000 3.0000 7.0000 0.0
SC_26370 50.0000 5.0000 3.0000 7.0000 0.0
SC_26613 50.0000 5.0000 3.0000 7.0000 0.0
SC_26614 50.0000 5.0000 3.0000 7.0000 0.0
SC_26615 50.0000 5.0000 3.0000 7.0000 0.0
SC_26616 50.0000 5.0000 3.0000 7.0000 0.0
SC_26617 50.0000 5.0000 3.0000 7.0000 0.0
SC_26618 50.0000 5.0000 3.0000 7.0000 0.0
SC_26619 50.0000 5.0000 3.0000 7.0000 0.0
SC_26620 50.0000 5.0000 3.0000 7.0000 0.0
SC_26621 50.0000 5.0000 3.0000 7.0000 0.0
SC_26622 50.0000 5.0000 3.0000 7.0000 0.0
SC_26623 50.0000 5.0000 3.0000 7.0000 0.0
SC_26624 50.0000 5.0000 3.0000 7.0000 0.0
SC_26625 50.0000 5.0000 3.0000 7.0000 0.0
SC_26626 50.0000 5.0000 3.0000 7.0000 0.0
SC_26627 50.0000 5.0000 3.0000 7.0000 0.0
SC_26628 50.0000 5.0000 3.0000 7.0000 0.0
SC_26629 50.0000 5.0000 3.0000 7.0000 0.0
SC_26630 50.0000 5.0000 3.0000 7.0000 0.0
SC_26631 50.0000 5.0000 3.0000 7.0000 0.0
SC_26632 50.0000 5.0000 3.0000 7.0000 0.0
SC_26633 50.0000 5.0000 3.0000 7.0000 0.0
SC_26634 50.0000 5.0000 3.0000 7.0000 0.0
SC_26635 50.0000 5.0000 3.0000 7.0000 0.0
SC_26636 50.0000 5.0000 3.0000 7.0000 0.0
SC_26637 50.0000 5.0000 3.0000 7.0000 0.0
SC_26638 50.0000 5.0000 3.0000 7.0000 0.0
SC_26639 50.0000 5.0000 3.0000 7.0000 0.0
SC_26640 50.0000 5.0000 3.0000 7.0000 0.0
SC_26641 50.0000 5.0000 3.0000 7.0000 0.0
SC_26642 50.0000 5.0000 3.0000 7.0000 0.0
SC_26643 50.0000 5.0000 3.0000 7.0000 0.0
SC_26644 50.0000 5.0000 3.0000 7.0000 0.0
SC_26645 50.0000 5.0000 3.0000 7.0000 0.0
SC_26646 50.0000 5.0000 3.0000 7.0000 0.0
SC_26647 50.0000 5.0000 3.0000 7.0000 0.0
SC_26648 50.0000 5.0000 3.0000 7.0000 0.0
SC_26649 50.0000 5.0000 3.0000 7.0000 0.0
SC_26650 50.0000 5.0000 3.0000 7.0000 0.0
SC_26651 50.0000 5.0000 3.0000 7.0000 0.0
SC_26652 50.0000 5.0000 3.0000 7.0000 0.0
SC_26653 50.0000 5.0000 3.0000 7.0000 0.0
SC_26654 50.0000 5.0000 3.0000 7.0000 0.0
SC_26655 50.0000 5.0000 3.0000 7.0000 0.0
SC_26656 50.0000 5.0000 3.0000 7.0000 0.0
SC_26657 50.0000 5.0000 3.0000 7.0000 0.0
SC_26658 50.0000 5.0000 3.0000 7.0000 0.0
SC_26664 50.0000 5.0000 3.0000 7.0000 0.0
SC_26888 50.0000 5.0000 3.0000 7.0000 0.0
SC_26889 50.0000 5.0000 3.0000 7.0000 0.0
SC_26890 50.0000 5.0000 3.0000 7.0000 0.0
SC_26891 50.0000 5.0000 3.0000 7.0000 0.0
SC_26892 50.0000 5.0000 3.0000 7.0000 0.0
SC_26893 50.0000 5.0000 3.0000 7.0000 0.0
SC_26894 50.0000 5.0000 3.0000 7.0000 0.0
SC_26895 50.0000 5.0000 3.0000 7.0000 0.0
SC_26896 50.0000 5.0000 3.0000 7.0000 0.0
SC_26897 50.0000 5.0000 3.0000 7.0000 0.0
SC_26898 50.0000 5.0000 3.0000 7.0000 0.0
SC_26899 50.0000 5.0000 3.0000 7.0000 0.0
SC_26900 50.0000 5.0000 3.0000 7.0000 0.0
SC_26901 50.0000 5.0000 3.0000 7.0000 0.0
SC_26902 50.0000 5.0000 3.0000 7.0000 0.0
SC_26903 50.0000 5.0000 3.0000 7.0000 0.0
SC_26904 50.0000 5.0000 3.0000 7.0000 0.0
SC_26905 50.0000 5.0000 3.0000 7.0000 0.0
SC_26906 50.0000 5.0000 3.0000 7.0000 0.0
SC_26907 50.0000 5.0000 3.0000 7.0000 0.0
SC_26908 50.0000 5.0000 3.0000 7.0000 0.0
SC_26909 50.0000 5.0000 3.0000 7.0000 0.0
SC_26910 50.0000 5.0000 3.0000 7.0000 0.0
SC_26911 50.0000 5.0000 3.0000 7.0000 0.0
SC_26912 50.0000 5.0000 3.0000 7.0000 0.0
SC_26913 50.0000 5.0000 3.0000 7.0000 0.0
SC_26914 50.0000 5.0000 3.0000 7.0000 0.0
SC_26915 50.0000 5.0000 3.0000 7.0000 0.0
SC_26916 50.0000 5.0000 3.0000 7.0000 0.0
SC_26917 50.0000 5.0000 3.0000 7.0000 0.0
SC_26918 50.0000 5.0000 3.0000 7.0000 0.0
SC_26919 50.0000 5.0000 3.0000 7.0000 0.0
SC_26920 50.0000 5.0000 3.0000 7.0000 0.0
SC_26921 50.0000 5.0000 3.0000 7.0000 0.0
SC_26922 50.0000 5.0000 3.0000 7.0000 0.0
SC_26923 50.0000 5.0000 3.0000 7.0000 0.0
SC_26924 50.0000 5.0000 3.0000 7.0000 0.0
SC_26925 50.0000 5.0000 3.0000 7.0000 0.0
SC_26926 50.0000 5.0000 3.0000 7.0000 0.0
SC_26927 50.0000 5.0000 3.0000 7.0000 0.0
SC_26928 50.0000 5.0000 3.0000 7.0000 0.0
SC_26929 50.0000 5.0000 3.0000 7.0000 0.0
SC_26930 50.0000 5.0000 3.0000 7.0000 0.0
SC_26931 50.0000 5.0000 3.0000 7.0000 0.0
SC_26932 50.0000 5.0000 3.0000 7.0000 0.0
SC_26933 50.0000 5.0000 3.0000 7.0000 0.0
SC_26934 50.0000 5.0000 3.0000 7.0000 0.0
SC_26939 50.0000 5.0000 3.0000 7.0000 0.0
SC_26940 50.0000 5.0000 3.0000 7.0000 0.0
SC_26941 50.0000 5.0000 3.0000 7.0000 0.0
SC_27163 50.0000 5.0000 3.0000 7.0000 0.0
SC_27164 50.0000 5.0000 3.0000 7.0000 0.0
SC_27165 50.0000 5.0000 3.0000 7.0000 0.0
SC_27166 50.0000 5.0000 3.0000 7.0000 0.0
SC_27167 50.0000 5.0000 3.0000 7.0000 0.0
SC_27168 50.0000 5.0000 3.0000 7.0000 0.0
SC_27169 50.0000 5.0000 3.0000 7.0000 0.0
SC_27170 50.0000 5.0000 3.0000 7.0000 0.0
SC_27171 50.0000 5.0000 3.0000 7.0000 0.0
SC_27172 50.0000 5.0000 3.0000 7.0000 0.0
SC_27173 50.0000 5.0000 3.0000 7.0000 0.0
SC_27174 50.0000 5.0000 3.0000 7.0000 0.0
SC_27175 50.0000 5.0000 3.0000 7.0000 0.0
SC_27176 50.0000 5.0000 3.0000 7.0000 0.0
SC_27177 50.0000 5.0000 3.0000 7.0000 0.0
SC_27178 50.0000 5.0000 3.0000 7.0000 0.0
SC_27179 50.0000 5.0000 3.0000 7.0000 0.0
SC_27180 50.0000 5.0000 3.0000 7.0000 0.0
SC_27181 50.0000 5.0000 3.0000 7.0000 0.0
SC_27182 50.0000 5.0000 3.0000 7.0000 0.0
SC_27183 50.0000 5.0000 3.0000 7.0000 0.0
SC_27184 50.0000 5.0000 3.0000 7.0000 0.0
SC_27185 50.0000 5.0000 3.0000 7.0000 0.0
SC_27186 50.0000 5.0000 3.0000 7.0000 0.0
SC_27187 50.0000 5.0000 3.0000 7.0000 0.0
SC_27188 50.0000 5.0000 3.0000 7.0000 0.0
SC_27189 50.0000 5.0000 3.0000 7.0000 0.0
SC_27190 50.0000 5.0000 3.0000 7.0000 0.0
SC_27191 50.0000 5.0000 3.0000 7.0000 0.0
SC_27192 50.0000 5.0000 3.0000 7.0000 0.0
SC_27193 50.0000 5.0000 3.0000 7.0000 0.0
SC_27194 50.0000 5.0000 3.0000 7.0000 0.0
SC_27195 50.0000 5.0000 3.0000 7.0000 0.0
SC_27196 50.0000 5.0000 3.0000 7.0000 0.0
SC_27197 50.0000 5.0000 3.0000 7.0000 0.0
SC_27198 50.0000 5.0000 3.0000 7.0000 0.0
SC_27199 50.0000 5.0000 3.0000 7.0000 0.0
SC_27200 50.0000 5.0000 3.0000 7.0000 0.0
SC_27201 50.0000 5.0000 3.0000 7.0000 0.0
SC_27202 50.0000 5.0000 3.0000 7.0000 0.0
SC_27203 50.0000 5.0000 3.0000 7.0000 0.0
SC_27204 50.0000 5.0000 3.0000 7.0000 0.0
SC_27205 50.0000 5.0000 3.0000 7.0000 0.0
SC_27206 50.0000 5.0000 3.0000 7.0000 0.0
SC_27207 50.0000 5.0000 3.0000 7.0000 0.0
SC_27208 50.0000 5.0000 3.0000 7.0000 0.0
SC_27209 50.0000 5.0000 3.0000 7.0000 0.0
SC_27212 50.0000 5.0000 3.0000 7.0000 0.0
SC_27213 50.0000 5.0000 3.0000 7.0000 0.0
SC_27214 50.0000 5.0000 3.0000 7.0000 0.0
SC_27215 50.0000 5.0000 3.0000 7.0000 0.0
SC_27216 50.0000 5.0000 3.0000 7.0000 0.0
SC_27217 50.0000 5.0000 3.0000 7.0000 0.0
SC_27436 50.0000 5.0000 3.0000 7.0000 0.0
SC_27437 50.0000 5.0000 3.0000 7.0000 0.0
SC_27438 50.0000 5.0000 3.0000 7.0000 0.0
SC_27439 50.0000 5.0000 3.0000 7.0000 0.0
SC_27440 50.0000 5.0000 3.0000 7.0000 0.0
SC_27441 50.0000 5.0000 3.0000 7.0000 0.0
SC_27442 50.0000 5.0000 3.0000 7.0000 0.0
SC_27443 50.0000 5.0000 3.0000 7.0000 0.0
SC_27444 50.0000 5.0000 3.0000 7.0000 0.0
SC_27445 50.0000 5.0000 3.0000 7.0000 0.0
SC_27446 50.0000 5.0000 3.0000 7.0000 0.0
SC_27447 50.0000 5.0000 3.0000 7.0000 0.0
SC_27448 50.0000 5.0000 3.0000 7.0000 0.0
SC_27449 50.0000 5.0000 3.0000 7.0000 0.0
SC_27450 50.0000 5.0000 3.0000 7.0000 0.0
SC_27451 50.0000 5.0000 3.0000 7.0000 0.0
SC_27452 50.0000 5.0000 3.0000 7.0000 0.0
SC_27453 50.0000 5.0000 3.0000 7.0000 0.0
SC_27454 50.0000 5.0000 3.0000 7.0000 0.0
SC_27455 50.0000 5.0000 3.0000 7.0000 0.0
SC_27456 50.0000 5.0000 3.0000 7.0000 0.0
SC_27457 50.0000 5.0000 3.0000 7.0000 0.0
SC_27458 50.0000 5.0000 3.0000 7.0000 0.0
SC_27459 50.0000 5.0000 3.0000 7.0000 0.0
SC_27460 50.0000 5.0000 3.0000 7.0000 0.0
SC_27461 50.0000 5.0000 3.0000 7.0000 0.0
SC_27462 50.0000 5.0000 3.0000 7.0000 0.0
SC_27463 50.0000 5.0000 3.0000 7.0000 0.0
SC_27464 50.0000 5.0000 3.0000 7.0000 0.0
SC_27465 50.0000 5.0000 3.0000 7.0000 0.0
SC_27466 50.0000 5.0000 3.0000 7.0000 0.0
SC_27467 50.0000 5.0000 3.0000 7.0000 0.0
SC_27468 50.0000 5.0000 3.0000 7.0000 0.0
SC_27469 50.0000 5.0000 3.0000 7.0000 0.0
SC_27470 50.0000 5.0000 3.0000 7.0000 0.0
SC_27471 50.0000 5.0000 3.0000 7.0000 0.0
SC_27472 50.0000 5.0000 3.0000 7.0000 0.0
SC_27473 50.0000 5.0000 3.0000 7.0000 0.0
SC_27474 50.0000 5.0000 3.0000 7.0000 0.0
SC_27475 50.0000 5.0000 3.0000 7.0000 0.0
SC_27476 50.0000 5.0000 3.0000 7.0000 0.0
SC_27477 50.0000 5.0000 3.0000 7.0000 0.0
SC_27478 50.0000 5.0000 3.0000 7.0000 0.0
SC_27479 50.0000 5.0000 3.0000 7.0000 0.0
SC_27480 50.0000 5.0000 3.0000 7.0000 0.0
SC_27481 50.0000 5.0000 3.0000 7.0000 0.0
SC_27482 50.0000 5.0000 3.0000 7.0000 0.0
SC_27483 50.0000 5.0000 3.0000 7.0000 0.0
SC_27484 50.0000 5.0000 3.0000 7.0000 0.0
SC_27485 50.0000 5.0000 3.0000 7.0000 0.0
SC_27486 50.0000 5.0000 3.0000 7.0000 0.0
SC_27487 50.0000 5.0000 3.0000 7.0000 0.0
SC_27488 50.0000 5.0000 3.0000 7.0000 0.0
SC_27489 50.0000 5.0000 3.0000 7.0000 0.0
SC_27490 50.0000 5.0000 3.0000 7.0000 0.0
SC_27709 50.0000 5.0000 3.0000 7.0000 0.0
SC_27710 50.0000 5.0000 3.0000 7.0000 0.0
SC_27711 50.0000 5.0000 3.0000 7.0000 0.0
SC_27712 50.0000 5.0000 3.0000 7.0000 0.0
SC_27713 50.0000 5.0000 3.0000 7.0000 0.0
SC_27714 50.0000 5.0000 3.0000 7.0000 0.0
SC_27715 50.0000 5.0000 3.0000 7.0000 0.0
SC_27716 50.0000 5.0000 3.0000 7.0000 0.0
SC_27717 50.0000 5.0000 3.0000 7.0000 0.0
SC_27718 50.0000 5.0000 3.0000 7.0000 0.0
SC_27719 50.0000 5.0000 3.0000 7.0000 0.0
SC_27720 50.0000 5.0000 3.0000 7.0000 0.0
SC_27721 50.0000 5.0000 3.0000 7.0000 0.0
SC_27722 50.0000 5.0000 3.0000 7.0000 0.0
SC_27723 50.0000 5.0000 3.0000 7.0000 0.0
SC_27724 50.0000 5.0000 3.0000 7.0000 0.0
SC_27725 50.0000 5.0000 3.0000 7.0000 0.0
SC_27726 50.0000 5.0000 3.0000 7.0000 0.0
SC_27727 50.0000 5.0000 3.0000 7.0000 0.0
SC_27728 50.0000 5.0000 3.0000 7.0000 0.0
SC_27729 50.0000 5.0000 3.0000 7.0000 0.0
SC_27730 50.0000 5.0000 3.0000 7.0000 0.0
SC_27731 50.0000 5.0000 3.0000 7.0000 0.0
SC_27732 50.0000 5.0000 3.0000 7.0000 0.0
SC_27733 50.0000 5.0000 3.0000 7.0000 0.0
SC_27734 50.0000 5.0000 3.0000 7.0000 0.0
SC_27735 50.0000 5.0000 3.0000 7.0000 0.0
SC_27736 50.0000 5.0000 3.0000 7.0000 0.0
SC_27737 50.0000 5.0000 3.0000 7.0000 0.0
SC_27738 50.0000 5.0000 3.0000 7.0000 0.0
SC_27739 50.0000 5.0000 3.0000 7.0000 0.0
SC_27740 50.0000 5.0000 3.0000 7.0000 0.0
SC_27741 50.0000 5.0000 3.0000 7.0000 0.0
SC_27742 50.0000 5.0000 3.0000 7.0000 0.0
SC_27743 50.0000 5.0000 3.0000 7.0000 0.0
SC_27744 50.0000 5.0000 3.0000 7.0000 0.0
SC_27745 50.0000 5.0000 3.0000 7.0000 0.0
SC_27746 50.0000 5.0000 3.0000 7.0000 0.0
SC_27747 50.0000 5.0000 3.0000 7.0000 0.0
SC_27748 50.0000 5.0000 3.0000 7.0000 0.0
SC_27749 50.0000 5.0000 3.0000 7.0000 0.0
SC_27750 50.0000 5.0000 3.0000 7.0000 0.0
SC_27751 50.0000 5.0000 3.0000 7.0000 0.0
SC_27752 50.0000 5.0000 3.0000 7.0000 0.0
SC_27753 50.0000 5.0000 3.0000 7.0000 0.0
SC_27754 50.0000 5.0000 3.0000 7.0000 0.0
SC_27755 50.0000 5.0000 3.0000 7.0000 0.0
SC_27756 50.0000 5.0000 3.0000 7.0000 0.0
SC_27757 50.0000 5.0000 3.0000 7.0000 0.0
SC_27758 50.0000 5.0000 3.0000 7.0000 0.0
SC_27759 50.0000 5.0000 3.0000 7.0000 0.0
SC_27760 50.0000 5.0000 3.0000 7.0000 0.0
SC_27761 50.0000 5.0000 3.0000 7.0000 0.0
SC_27981 50.0000 5.0000 3.0000 7.0000 0.0
SC_27982 50.0000 5.0000 3.0000 7.0000 0.0
SC_27983 50.0000 5.0000 3.0000 7.0000 0.0
SC_27984 50.0000 5.0000 3.0000 7.0000 0.0
SC_27985 50.0000 5.0000 3.0000 7.0000 0.0
SC_27986 50.0000 5.0000 3.0000 7.0000 0.0
SC_27987 50.0000 5.0000 3.0000 7.0000 0.0
SC_27988 50.0000 5.0000 3.0000 7.0000 0.0
SC_27989 50.0000 5.0000 3.0000 7.0000 0.0
SC_27990 50.0000 5.0000 3.0000 7.0000 0.0
SC_27991 50.0000 5.0000 3.0000 7.0000 0.0
SC_27992 50.0000 5.0000 3.0000 7.0000 0.0
SC_27993 50.0000 5.0000 3.0000 7.0000 0.0
SC_27994 50.0000 5.0000 3.0000 7.0000 0.0
SC_27995 50.0000 5.0000 3.0000 7.0000 0.0
SC_27996 50.0000 5.0000 3.0000 7.0000 0.0
SC_27997 50.0000 5.0000 3.0000 7.0000 0.0
SC_27998 50.0000 5.0000 3.0000 7.0000 0.0
SC_27999 50.0000 5.0000 3.0000 7.0000 0.0
SC_28000 50.0000 5.0000 3.0000 7.0000 0.0
SC_28001 50.0000 5.0000 3.0000 7.0000 0.0
SC_28002 50.0000 5.0000 3.0000 7.0000 0.0
SC_28003 50.0000 5.0000 3.0000 7.0000 0.0
SC_28004 50.0000 5.0000 3.0000 7.0000 0.0
SC_28005 50.0000 5.0000 3.0000 7.0000 0.0
SC_28006 50.0000 5.0000 3.0000 7.0000 0.0
SC_28007 50.0000 5.0000 3.0000 7.0000 0.0
SC_28008 50.0000 5.0000 3.0000 7.0000 0.0
SC_28009 50.0000 5.0000 3.0000 7.0000 0.0
SC_28010 50.0000 5.0000 3.0000 7.0000 0.0
SC_28011 50.0000 5.0000 3.0000 7.0000 0.0
SC_28012 50.0000 5.0000 3.0000 7.0000 0.0
SC_28013 50.0000 5.0000 3.0000 7.0000 0.0
SC_28014 50.0000 5.0000 3.0000 7.0000 0.0
SC_28015 50.0000 5.0000 3.0000 7.0000 0.0
SC_28016 50.0000 5.0000 3.0000 7.0000 0.0
SC_28017 50.0000 5.0000 3.0000 7.0000 0.0
SC_28018 50.0000 5.0000 3.0000 7.0000 0.0
SC_28019 50.0000 5.0000 3.0000 7.0000 0.0
SC_28020 50.0000 5.0000 3.0000 7.0000 0.0
SC_28021 50.0000 5.0000 3.0000 7.0000 0.0
SC_28022 50.0000 5.0000 3.0000 7.0000 0.0
SC_28023 50.0000 5.0000 3.0000 7.0000 0.0
SC_28024 50.0000 5.0000 3.0000 7.0000 0.0
SC_28025 50.0000 5.0000 3.0000 7.0000 0.0
SC_28026 50.0000 5.0000 3.0000 7.0000 0.0
SC_28027 50.0000 5.0000 3.0000 7.0000 0.0
SC_28028 50.0000 5.0000 3.0000 7.0000 0.0
SC_28029 50.0000 5.0000 3.0000 7.0000 0.0
SC_28030 50.0000 5.0000 3.0000 7.0000 0.0
SC_28031 50.0000 5.0000 3.0000 7.0000 0.0
SC_28032 50.0000 5.0000 3.0000 7.0000 0.0
SC_28253 50.0000 5.0000 3.0000 7.0000 0.0
SC_28254 50.0000 5.0000 3.0000 7.0000 0.0
SC_28255 50.0000 5.0000 3.0000 7.0000 0.0
SC_28256 50.0000 5.0000 3.0000 7.0000 0.0
SC_28257 50.0000 5.0000 3.0000 7.0000 0.0
SC_28258 50.0000 5.0000 3.0000 7.0000 0.0
SC_28259 50.0000 5.0000 3.0000 7.0000 0.0
SC_28260 50.0000 5.0000 3.0000 7.0000 0.0
SC_28261 50.0000 5.0000 3.0000 7.0000 0.0
SC_28262 50.0000 5.0000 3.0000 7.0000 0.0
SC_28263 50.0000 5.0000 3.0000 7.0000 0.0
SC_28264 50.0000 5.0000 3.0000 7.0000 0.0
SC_28265 50.0000 5.0000 3.0000 7.0000 0.0
SC_28266 50.0000 5.0000 3.0000 7.0000 0.0
SC_28267 50.0000 5.0000 3.0000 7.0000 0.0
SC_28268 50.0000 5.0000 3.0000 7.0000 0.0
SC_28269 50.0000 5.0000 3.0000 7.0000 0.0
SC_28270 50.0000 5.0000 3.0000 7.0000 0.0
SC_28271 50.0000 5.0000 3.0000 7.0000 0.0
SC_28272 50.0000 5.0000 3.0000 7.0000 0.0
SC_28273 50.0000 5.0000 3.0000 7.0000 0.0
SC_28274 50.0000 5.0000 3.0000 7.0000 0.0
SC_28275 50.0000 5.0000 3.0000 7.0000 0.0
SC_28276 50.0000 5.0000 3.0000 7.0000 0.0
SC_28277 50.0000 5.0000 3.0000 7.0000 0.0
SC_28278 50.0000 5.0000 3.0000 7.0000 0.0
SC_28279 50.0000 5.0000 3.0000 7.0000 0.0
SC_28280 50.0000 5.0000 3.0000 7.0000 0.0
SC_28281 50.0000 5.0000 3.0000 7.0000 0.0
SC_28282 50.0000 5.0000 3.0000 7.0000 0.0
SC_28283 50.0000 5.0000 3.0000 7.0000 0.0
SC_28284 50.0000 5.0000 3.0000 7.0000 0.0
SC_28285 50.0000 5.0000 3.0000 7.0000 0.0
SC_28286 50.0000 5.0000 3.0000 7.0000 0.0
SC_28287 50.0000 5.0000 3.0000 7.0000 0.0
SC_28288 50.0000 5.0000 3.0000 7.0000 0.0
SC_28289 50.0000 5.0000 3.0000 7.0000 0.0
SC_28290 50.0000 5.0000 3.0000 7.0000 0.0
SC_28291 50.0000 5.0000 3.0000 7.0000 0.0
SC_28292 50.0000 5.0000 3.0000 7.0000 0.0
SC_28293 50.0000 5.0000 3.0000 7.0000 0.0
SC_28294 50.0000 5.0000 3.0000 7.0000 0.0
SC_28295 50.0000 5.0000 3.0000 7.0000 0.0
SC_28296 50.0000 5.0000 3.0000 7.0000 0.0
SC_28297 50.0000 5.0000 3.0000 7.0000 0.0
SC_28298 50.0000 5.0000 3.0000 7.0000 0.0
SC_28299 50.0000 5.0000 3.0000 7.0000 0.0
SC_28300 50.0000 5.0000 3.0000 7.0000 0.0
SC_28301 50.0000 5.0000 3.0000 7.0000 0.0
SC_28302 50.0000 5.0000 3.0000 7.0000 0.0
SC_28303 50.0000 5.0000 3.0000 7.0000 0.0
SC_28304 50.0000 5.0000 3.0000 7.0000 0.0
SC_28305 50.0000 5.0000 3.0000 7.0000 0.0
SC_28331 50.0000 5.0000 3.0000 7.0000 0.0
SC_28526 50.0000 5.0000 3.0000 7.0000 0.0
SC_28527 50.0000 5.0000 3.0000 7.0000 0.0
SC_28528 50.0000 5.0000 3.0000 7.0000 0.0
SC_28529 50.0000 5.0000 3.0000 7.0000 0.0
SC_28530 50.0000 5.0000 3.0000 7.0000 0.0
SC_28531 50.0000 5.0000 3.0000 7.0000 0.0
SC_28532 50.0000 5.0000 3.0000 7.0000 0.0
SC_28533 50.0000 5.0000 3.0000 7.0000 0.0
SC_28534 50.0000 5.0000 3.0000 7.0000 0.0
SC_28535 50.0000 5.0000 3.0000 7.0000 0.0
SC_28536 50.0000 5.0000 3.0000 7.0000 0.0
SC_28537 50.0000 5.0000 3.0000 7.0000 0.0
SC_28538 50.0000 5.0000 3.0000 7.0000 0.0
SC_28539 50.0000 5.0000 3.0000 7.0000 0.0
SC_28540 50.0000 5.0000 3.0000 7.0000 0.0
SC_28541 50.0000 5.0000 3.0000 7.0000 0.0
SC_28542 50.0000 5.0000 3.0000 7.0000 0.0
SC_28543 50.0000 5.0000 3.0000 7.0000 0.0
SC_28544 50.0000 5.0000 3.0000 7.0000 0.0
SC_28545 50.0000 5.0000 3.0000 7.0000 0.0
SC_28546 50.0000 5.0000 3.0000 7.0000 0.0
SC_28547 50.0000 5.0000 3.0000 7.0000 0.0
SC_28548 50.0000 5.0000 3.0000 7.0000 0.0
SC_28549 50.0000 5.0000 3.0000 7.0000 0.0
SC_28550 50.0000 5.0000 3.0000 7.0000 0.0
SC_28551 50.0000 5.0000 3.0000 7.0000 0.0
SC_28552 50.0000 5.0000 3.0000 7.0000 0.0
SC_28553 50.0000 5.0000 3.0000 7.0000 0.0
SC_28554 50.0000 5.0000 3.0000 7.0000 0.0
SC_28555 50.0000 5.0000 3.0000 7.0000 0.0
SC_28556 50.0000 5.0000 3.0000 7.0000 0.0
SC_28557 50.0000 5.0000 3.0000 7.0000 0.0
SC_28558 50.0000 5.0000 3.0000 7.0000 0.0
SC_28559 50.0000 5.0000 3.0000 7.0000 0.0
SC_28560 50.0000 5.0000 3.0000 7.0000 0.0
SC_28561 50.0000 5.0000 3.0000 7.0000 0.0
SC_28562 50.0000 5.0000 3.0000 7.0000 0.0
SC_28563 50.0000 5.0000 3.0000 7.0000 0.0
SC_28564 50.0000 5.0000 3.0000 7.0000 0.0
SC_28565 50.0000 5.0000 3.0000 7.0000 0.0
SC_28566 50.0000 5.0000 3.0000 7.0000 0.0
SC_28567 50.0000 5.0000 3.0000 7.0000 0.0
SC_28568 50.0000 5.0000 3.0000 7.0000 0.0
SC_28569 50.0000 5.0000 3.0000 7.0000 0.0
SC_28570 50.0000 5.0000 3.0000 7.0000 0.0
SC_28571 50.0000 5.0000 3.0000 7.0000 0.0
SC_28572 50.0000 5.0000 3.0000 7.0000 0.0
SC_28573 50.0000 5.0000 3.0000 7.0000 0.0
SC_28574 50.0000 5.0000 3.0000 7.0000 0.0
SC_28575 50.0000 5.0000 3.0000 7.0000 0.0
SC_28576 50.0000 5.0000 3.0000 7.0000 0.0
SC_28577 50.0000 5.0000 3.0000 7.0000 0.0
SC_28578 50.0000 5.0000 3.0000 7.0000 0.0
SC_28584 50.0000 5.0000 3.0000 7.0000 0.0
SC_28602 50.0000 5.0000 3.0000 7.0000 0.0
SC_28603 50.0000 5.0000 3.0000 7.0000 0.0
SC_28801 50.0000 5.0000 3.0000 7.0000 0.0
SC_28802 50.0000 5.0000 3.0000 7.0000 0.0
SC_28803 50.0000 5.0000 3.0000 7.0000 0.0
SC_28804 50.0000 5.0000 3.0000 7.0000 0.0
SC_28805 50.0000 5.0000 3.0000 7.0000 0.0
SC_28806 50.0000 5.0000 3.0000 7.0000 0.0
SC_28807 50.0000 5.0000 3.0000 7.0000 0.0
SC_28808 50.0000 5.0000 3.0000 7.0000 0.0
SC_28809 50.0000 5.0000 3.0000 7.0000 0.0
SC_28810 50.0000 5.0000 3.0000 7.0000 0.0
SC_28811 50.0000 5.0000 3.0000 7.0000 0.0
SC_28812 50.0000 5.0000 3.0000 7.0000 0.0
SC_28813 50.0000 5.0000 3.0000 7.0000 0.0
SC_28814 50.0000 5.0000 3.0000 7.0000 0.0
SC_28815 50.0000 5.0000 3.0000 7.0000 0.0
SC_28816 50.0000 5.0000 3.0000 7.0000 0.0
SC_28817 50.0000 5.0000 3.0000 7.0000 0.0
SC_28818 50.0000 5.0000 3.0000 7.0000 0.0
SC_28819 50.0000 5.0000 3.0000 7.0000 0.0
SC_28820 50.0000 5.0000 3.0000 7.0000 0.0
SC_28821 50.0000 5.0000 3.0000 7.0000 0.0
SC_28822 50.0000 5.0000 3.0000 7.0000 0.0
SC_28823 50.0000 5.0000 3.0000 7.0000 0.0
SC_28824 50.0000 5.0000 3.0000 7.0000 0.0
SC_28825 50.0000 5.0000 3.0000 7.0000 0.0
SC_28826 50.0000 5.0000 3.0000 7.0000 0.0
SC_28827 50.0000 5.0000 3.0000 7.0000 0.0
SC_28828 50.0000 5.0000 3.0000 7.0000 0.0
SC_28829 50.0000 5.0000 3.0000 7.0000 0.0
SC_28830 50.0000 5.0000 3.0000 7.0000 0.0
SC_28831 50.0000 5.0000 3.0000 7.0000 0.0
SC_28832 50.0000 5.0000 3.0000 7.0000 0.0
SC_28833 50.0000 5.0000 3.0000 7.0000 0.0
SC_28834 50.0000 5.0000 3.0000 7.0000 0.0
SC_28835 50.0000 5.0000 3.0000 7.0000 0.0
SC_28836 50.0000 5.0000 3.0000 7.0000 0.0
SC_28837 50.0000 5.0000 3.0000 7.0000 0.0
SC_28838 50.0000 5.0000 3.0000 7.0000 0.0
SC_28839 50.0000 5.0000 3.0000 7.0000 0.0
SC_28840 50.0000 5.0000 3.0000 7.0000 0.0
SC_28841 50.0000 5.0000 3.0000 7.0000 0.0
SC_28842 50.0000 5.0000 3.0000 7.0000 0.0
SC_28843 50.0000 5.0000 3.0000 7.0000 0.0
SC_28844 50.0000 5.0000 3.0000 7.0000 0.0
SC_28845 50.0000 5.0000 3.0000 7.0000 0.0
SC_28846 50.0000 5.0000 3.0000 7.0000 0.0
SC_28847 50.0000 5.0000 3.0000 7.0000 0.0
SC_28848 50.0000 5.0000 3.0000 7.0000 0.0
SC_28849 50.0000 5.0000 3.0000 7.0000 0.0
SC_28850 50.0000 5.0000 3.0000 7.0000 0.0
SC_28851 50.0000 5.0000 3.0000 7.0000 0.0
SC_28852 50.0000 5.0000 3.0000 7.0000 0.0
SC_28853 50.0000 5.0000 3.0000 7.0000 0.0
SC_28857 50.0000 5.0000 3.0000 7.0000 0.0
SC_28858 50.0000 5.0000 3.0000 7.0000 0.0
SC_28859 50.0000 5.0000 3.0000 7.0000 0.0
SC_28863 50.0000 5.0000 3.0000 7.0000 0.0
SC_28864 50.0000 5.0000 3.0000 7.0000 0.0
SC_28865 50.0000 5.0000 3.0000 7.0000 0.0
SC_28866 50.0000 5.0000 3.0000 7.0000 0.0
SC_28867 50.0000 5.0000 3.0000 7.0000 0.0
SC_28875 50.0000 5.0000 3.0000 7.0000 0.0
SC_28876 50.0000 5.0000 3.0000 7.0000 0.0
SC_28877 50.0000 5.0000 3.0000 7.0000 0.0
SC_29079 50.0000 5.0000 3.0000 7.0000 0.0
SC_29080 50.0000 5.0000 3.0000 7.0000 0.0
SC_29081 50.0000 5.0000 3.0000 7.0000 0.0
SC_29082 50.0000 5.0000 3.0000 7.0000 0.0
SC_29083 50.0000 5.0000 3.0000 7.0000 0.0
SC_29084 50.0000 5.0000 3.0000 7.0000 0.0
SC_29085 50.0000 5.0000 3.0000 7.0000 0.0
SC_29086 50.0000 5.0000 3.0000 7.0000 0.0
SC_29087 50.0000 5.0000 3.0000 7.0000 0.0
SC_29088 50.0000 5.0000 3.0000 7.0000 0.0
SC_29089 50.0000 5.0000 3.0000 7.0000 0.0
SC_29090 50.0000 5.0000 3.0000 7.0000 0.0
SC_29091 50.0000 5.0000 3.0000 7.0000 0.0
SC_29092 50.0000 5.0000 3.0000 7.0000 0.0
SC_29093 50.0000 5.0000 3.0000 7.0000 0.0
SC_29094 50.0000 5.0000 3.0000 7.0000 0.0
SC_29095 50.0000 5.0000 3.0000 7.0000 0.0
SC_29096 50.0000 5.0000 3.0000 7.0000 0.0
SC_29097 50.0000 5.0000 3.0000 7.0000 0.0
SC_29098 50.0000 5.0000 3.0000 7.0000 0.0
SC_29099 50.0000 5.0000 3.0000 7.0000 0.0
SC_29100 50.0000 5.0000 3.0000 7.0000 0.0
SC_29101 50.0000 5.0000 3.0000 7.0000 0.0
SC_29102 50.0000 5.0000 3.0000 7.0000 0.0
SC_29103 50.0000 5.0000 3.0000 7.0000 0.0
SC_29104 50.0000 5.0000 3.0000 7.0000 0.0
SC_29105 50.0000 5.0000 3.0000 7.0000 0.0
SC_29106 50.0000 5.0000 3.0000 7.0000 0.0
SC_29107 50.0000 5.0000 3.0000 7.0000 0.0
SC_29108 50.0000 5.0000 3.0000 7.0000 0.0
SC_29109 50.0000 5.0000 3.0000 7.0000 0.0
SC_29110 50.0000 5.0000 3.0000 7.0000 0.0
SC_29111 50.0000 5.0000 3.0000 7.0000 0.0
SC_29112 50.0000 5.0000 3.0000 7.0000 0.0
SC_29113 50.0000 5.0000 3.0000 7.0000 0.0
SC_29114 50.0000 5.0000 3.0000 7.0000 0.0
SC_29115 50.0000 5.0000 3.0000 7.0000 0.0
SC_29116 50.0000 5.0000 3.0000 7.0000 0.0
SC_29117 50.0000 5.0000 3.0000 7.0000 0.0
SC_29118 50.0000 5.0000 3.0000 7.0000 0.0
SC_29119 50.0000 5.0000 3.0000 7.0000 0.0
SC_29120 50.0000 5.0000 3.0000 7.0000 0.0
SC_29121 50.0000 5.0000 3.0000 7.0000 0.0
SC_29122 50.0000 5.0000 3.0000 7.0000 0.0
SC_29123 50.0000 5.0000 3.0000 7.0000 0.0
SC_29124 50.0000 5.0000 3.0000 7.0000 0.0
SC_29125 50.0000 5.0000 3.0000 7.0000 0.0
SC_29126 50.0000 5.0000 3.0000 7.0000 0.0
SC_29127 50.0000 5.0000 3.0000 7.0000 0.0
SC_29128 50.0000 5.0000 3.0000 7.0000 0.0
SC_29129 50.0000 5.0000 3.0000 7.0000 0.0
SC_29130 50.0000 5.0000 3.0000 7.0000 0.0
SC_29131 50.0000 5.0000 3.0000 7.0000 0.0
SC_29132 50.0000 5.0000 3.0000 7.0000 0.0
SC_29133 50.0000 5.0000 3.0000 7.0000 0.0
SC_29134 50.0000 5.0000 3.0000 7.0000 0.0
SC_29135 50.0000 5.0000 3.0000 7.0000 0.0
SC_29136 50.0000 5.0000 3.0000 7.0000 0.0
SC_29137 50.0000 5.0000 3.0000 7.0000 0.0
SC_29138 50.0000 5.0000 3.0000 7.0000 0.0
SC_29139 50.0000 5.0000 3.0000 7.0000 0.0
SC_29140 50.0000 5.0000 3.0000 7.0000 0.0
SC_29141 50.0000 5.0000 3.0000 7.0000 0.0
SC_29142 50.0000 5.0000 3.0000 7.0000 0.0
SC_29143 50.0000 5.0000 3.0000 7.0000 0.0
SC_29144 50.0000 5.0000 3.0000 7.0000 0.0
SC_29148 50.0000 5.0000 3.0000 7.0000 0.0
SC_29149 50.0000 5.0000 3.0000 7.0000 0.0
SC_29150 50.0000 5.0000 3.0000 7.0000 0.0
SC_29151 50.0000 5.0000 3.0000 7.0000 0.0
SC_29152 50.0000 5.0000 3.0000 7.0000 0.0
SC_29357 50.0000 5.0000 3.0000 7.0000 0.0
SC_29358 50.0000 5.0000 3.0000 7.0000 0.0
SC_29359 50.0000 5.0000 3.0000 7.0000 0.0
SC_29360 50.0000 5.0000 3.0000 7.0000 0.0
SC_29361 50.0000 5.0000 3.0000 7.0000 0.0
SC_29362 50.0000 5.0000 3.0000 7.0000 0.0
SC_29363 50.0000 5.0000 3.0000 7.0000 0.0
SC_29364 50.0000 5.0000 3.0000 7.0000 0.0
SC_29365 50.0000 5.0000 3.0000 7.0000 0.0
SC_29366 50.0000 5.0000 3.0000 7.0000 0.0
SC_29367 50.0000 5.0000 3.0000 7.0000 0.0
SC_29368 50.0000 5.0000 3.0000 7.0000 0.0
SC_29369 50.0000 5.0000 3.0000 7.0000 0.0
SC_29370 50.0000 5.0000 3.0000 7.0000 0.0
SC_29371 50.0000 5.0000 3.0000 7.0000 0.0
SC_29372 50.0000 5.0000 3.0000 7.0000 0.0
SC_29373 50.0000 5.0000 3.0000 7.0000 0.0
SC_29374 50.0000 5.0000 3.0000 7.0000 0.0
SC_29375 50.0000 5.0000 3.0000 7.0000 0.0
SC_29376 50.0000 5.0000 3.0000 7.0000 0.0
SC_29377 50.0000 5.0000 3.0000 7.0000 0.0
SC_29378 50.0000 5.0000 3.0000 7.0000 0.0
SC_29379 50.0000 5.0000 3.0000 7.0000 0.0
SC_29380 50.0000 5.0000 3.0000 7.0000 0.0
SC_29381 50.0000 5.0000 3.0000 7.0000 0.0
SC_29382 50.0000 5.0000 3.0000 7.0000 0.0
SC_29383 50.0000 5.0000 3.0000 7.0000 0.0
SC_29384 50.0000 5.0000 3.0000 7.0000 0.0
SC_29385 50.0000 5.0000 3.0000 7.0000 0.0
SC_29386 50.0000 5.0000 3.0000 7.0000 0.0
SC_29387 50.0000 5.0000 3.0000 7.0000 0.0
SC_29388 50.0000 5.0000 3.0000 7.0000 0.0
SC_29389 50.0000 5.0000 3.0000 7.0000 0.0
SC_29390 50.0000 5.0000 3.0000 7.0000 0.0
SC_29391 50.0000 5.0000 3.0000 7.0000 0.0
SC_29392 50.0000 5.0000 3.0000 7.0000 0.0
SC_29393 50.0000 5.0000 3.0000 7.0000 0.0
SC_29394 50.0000 5.0000 3.0000 7.0000 0.0
SC_29395 50.0000 5.0000 3.0000 7.0000 0.0
SC_29396 50.0000 5.0000 3.0000 7.0000 0.0
SC_29397 50.0000 5.0000 3.0000 7.0000 0.0
SC_29398 50.0000 5.0000 3.0000 7.0000 0.0
SC_29399 50.0000 5.0000 3.0000 7.0000 0.0
SC_29400 50.0000 5.0000 3.0000 7.0000 0.0
SC_29401 50.0000 5.0000 3.0000 7.0000 0.0
SC_29402 50.0000 5.0000 3.0000 7.0000 0.0
SC_29403 50.0000 5.0000 3.0000 7.0000 0.0
SC_29404 50.0000 5.0000 3.0000 7.0000 0.0
SC_29405 50.0000 5.0000 3.0000 7.0000 0.0
SC_29406 50.0000 5.0000 3.0000 7.0000 0.0
SC_29407 50.0000 5.0000 3.0000 7.0000 0.0
SC_29408 50.0000 5.0000 3.0000 7.0000 0.0
SC_29409 50.0000 5.0000 3.0000 7.0000 0.0
SC_29410 50.0000 5.0000 3.0000 7.0000 0.0
SC_29411 50.0000 5.0000 3.0000 7.0000 0.0
SC_29412 50.0000 5.0000 3.0000 7.0000 0.0
SC_29413 50.0000 5.0000 3.0000 7.0000 0.0
SC_29414 50.0000 5.0000 3.0000 7.0000 0.0
SC_29415 50.0000 5.0000 3.0000 7.0000 0.0
SC_29416 50.0000 5.0000 3.0000 7.0000 0.0
SC_29417 50.0000 5.0000 3.0000 7.0000 0.0
SC_29418 50.0000 5.0000 3.0000 7.0000 0.0
SC_29419 50.0000 5.0000 3.0000 7.0000 0.0
SC_29420 50.0000 5.0000 3.0000 7.0000 0.0
SC_29421 50.0000 5.0000 3.0000 7.0000 0.0
SC_29423 50.0000 5.0000 3.0000 7.0000 0.0
SC_29424 50.0000 5.0000 3.0000 7.0000 0.0
SC_29425 50.0000 5.0000 3.0000 7.0000 0.0
SC_29426 50.0000 5.0000 3.0000 7.0000 0.0
SC_29427 50.0000 5.0000 3.0000 7.0000 0.0
SC_29428 50.0000 5.0000 3.0000 7.0000 0.0
SC_29638 50.0000 5.0000 3.0000 7.0000 0.0
SC_29639 50.0000 5.0000 3.0000 7.0000 0.0
SC_29640 50.0000 5.0000 3.0000 7.0000 0.0
SC_29641 50.0000 5.0000 3.0000 7.0000 0.0
SC_29642 50.0000 5.0000 3.0000 7.0000 0.0
SC_29643 50.0000 5.0000 3.0000 7.0000 0.0
SC_29644 50.0000 5.0000 3.0000 7.0000 0.0
SC_29645 50.0000 5.0000 3.0000 7.0000 0.0
SC_29646 50.0000 5.0000 3.0000 7.0000 0.0
SC_29647 50.0000 5.0000 3.0000 7.0000 0.0
SC_29648 50.0000 5.0000 3.0000 7.0000 0.0
SC_29649 50.0000 5.0000 3.0000 7.0000 0.0
SC_29650 50.0000 5.0000 3.0000 7.0000 0.0
SC_29651 50.0000 5.0000 3.0000 7.0000 0.0
SC_29652 50.0000 5.0000 3.0000 7.0000 0.0
SC_29653 50.0000 5.0000 3.0000 7.0000 0.0
SC_29654 50.0000 5.0000 3.0000 7.0000 0.0
SC_29655 50.0000 5.0000 3.0000 7.0000 0.0
SC_29656 50.0000 5.0000 3.0000 7.0000 0.0
SC_29657 50.0000 5.0000 3.0000 7.0000 0.0
SC_29658 50.0000 5.0000 3.0000 7.0000 0.0
SC_29659 50.0000 5.0000 3.0000 7.0000 0.0
SC_29660 50.0000 5.0000 3.0000 7.0000 0.0
SC_29661 50.0000 5.0000 3.0000 7.0000 0.0
SC_29662 50.0000 5.0000 3.0000 7.0000 0.0
SC_29663 50.0000 5.0000 3.0000 7.0000 0.0
SC_29664 50.0000 5.0000 3.0000 7.0000 0.0
SC_29665 50.0000 5.0000 3.0000 7.0000 0.0
SC_29666 50.0000 5.0000 3.0000 7.0000 0.0
SC_29667 50.0000 5.0000 3.0000 7.0000 0.0
SC_29668 50.0000 5.0000 3.0000 7.0000 0.0
SC_29669 50.0000 5.0000 3.0000 7.0000 0.0
SC_29670 50.0000 5.0000 3.0000 7.0000 0.0
SC_29671 50.0000 5.0000 3.0000 7.0000 0.0
SC_29672 50.0000 5.0000 3.0000 7.0000 0.0
SC_29673 50.0000 5.0000 3.0000 7.0000 0.0
SC_29674 50.0000 5.0000 3.0000 7.0000 0.0
SC_29675 50.0000 5.0000 3.0000 7.0000 0.0
SC_29676 50.0000 5.0000 3.0000 7.0000 0.0
SC_29677 50.0000 5.0000 3.0000 7.0000 0.0
SC_29678 50.0000 5.0000 3.0000 7.0000 0.0
SC_29679 50.0000 5.0000 3.0000 7.0000 0.0
SC_29680 50.0000 5.0000 3.0000 7.0000 0.0
SC_29681 50.0000 5.0000 3.0000 7.0000 0.0
SC_29682 50.0000 5.0000 3.0000 7.0000 0.0
SC_29683 50.0000 5.0000 3.0000 7.0000 0.0
SC_29684 50.0000 5.0000 3.0000 7.0000 0.0
SC_29685 50.0000 5.0000 3.0000 7.0000 0.0
SC_29686 50.0000 5.0000 3.0000 7.0000 0.0
SC_29687 50.0000 5.0000 3.0000 7.0000 0.0
SC_29688 50.0000 5.0000 3.0000 7.0000 0.0
SC_29689 50.0000 5.0000 3.0000 7.0000 0.0
SC_29690 50.0000 5.0000 3.0000 7.0000 0.0
SC_29691 50.0000 5.0000 3.0000 7.0000 0.0
SC_29692 50.0000 5.0000 3.0000 7.0000 0.0
SC_29693 50.0000 5.0000 3.0000 7.0000 0.0
SC_29694 50.0000 5.0000 3.0000 7.0000 0.0
SC_29695 50.0000 5.0000 3.0000 7.0000 0.0
SC_29696 50.0000 5.0000 3.0000 7.0000 0.0
SC_29697 50.0000 5.0000 3.0000 7.0000 0.0
SC_29698 50.0000 5.0000 3.0000 7.0000 0.0
SC_29699 50.0000 5.0000 3.0000 7.0000 0.0
SC_29700 50.0000 5.0000 3.0000 7.0000 0.0
SC_29701 50.0000 5.0000 3.0000 7.0000 0.0
SC_29702 50.0000 5.0000 3.0000 7.0000 0.0
SC_29703 50.0000 5.0000 3.0000 7.0000 0.0
SC_29704 50.0000 5.0000 3.0000 7.0000 0.0
SC_29705 50.0000 5.0000 3.0000 7.0000 0.0
SC_29706 50.0000 5.0000 3.0000 7.0000 0.0
SC_29707 50.0000 5.0000 3.0000 7.0000 0.0
SC_29917 50.0000 5.0000 3.0000 7.0000 0.0
SC_29918 50.0000 5.0000 3.0000 7.0000 0.0
SC_29919 50.0000 5.0000 3.0000 7.0000 0.0
SC_29920 50.0000 5.0000 3.0000 7.0000 0.0
SC_29921 50.0000 5.0000 3.0000 7.0000 0.0
SC_29922 50.0000 5.0000 3.0000 7.0000 0.0
SC_29923 50.0000 5.0000 3.0000 7.0000 0.0
SC_29924 50.0000 5.0000 3.0000 7.0000 0.0
SC_29925 50.0000 5.0000 3.0000 7.0000 0.0
SC_29926 50.0000 5.0000 3.0000 7.0000 0.0
SC_29927 50.0000 5.0000 3.0000 7.0000 0.0
SC_29928 50.0000 5.0000 3.0000 7.0000 0.0
SC_29929 50.0000 5.0000 3.0000 7.0000 0.0
SC_29930 50.0000 5.0000 3.0000 7.0000 0.0
SC_29931 50.0000 5.0000 3.0000 7.0000 0.0
SC_29932 50.0000 5.0000 3.0000 7.0000 0.0
SC_29933 50.0000 5.0000 3.0000 7.0000 0.0
SC_29934 50.0000 5.0000 3.0000 7.0000 0.0
SC_29935 50.0000 5.0000 3.0000 7.0000 0.0
SC_29936 50.0000 5.0000 3.0000 7.0000 0.0
SC_29937 50.0000 5.0000 3.0000 7.0000 0.0
SC_29938 50.0000 5.0000 3.0000 7.0000 0.0
SC_29939 50.0000 5.0000 3.0000 7.0000 0.0
SC_29940 50.0000 5.0000 3.0000 7.0000 0.0
SC_29941 50.0000 5.0000 3.0000 7.0000 0.0
SC_29942 50.0000 5.0000 3.0000 7.0000 0.0
SC_29943 50.0000 5.0000 3.0000 7.0000 0.0
SC_29944 50.0000 5.0000 3.0000 7.0000 0.0
SC_29945 50.0000 5.0000 3.0000 7.0000 0.0
SC_29946 50.0000 5.0000 3.0000 7.0000 0.0
SC_29947 50.0000 5.0000 3.0000 7.0000 0.0
SC_29948 50.0000 5.0000 3.0000 7.0000 0.0
SC_29949 50.0000 5.0000 3.0000 7.0000 0.0
SC_29950 50.0000 5.0000 3.0000 7.0000 0.0
SC_29951 50.0000 5.0000 3.0000 7.0000 0.0
SC_29952 50.0000 5.0000 3.0000 7.0000 0.0
SC_29953 50.0000 5.0000 3.0000 7.0000 0.0
SC_29954 50.0000 5.0000 3.0000 7.0000 0.0
SC_29955 50.0000 5.0000 3.0000 7.0000 0.0
SC_29956 50.0000 5.0000 3.0000 7.0000 0.0
SC_29957 50.0000 5.0000 3.0000 7.0000 0.0
SC_29958 50.0000 5.0000 3.0000 7.0000 0.0
SC_29959 50.0000 5.0000 3.0000 7.0000 0.0
SC_29960 50.0000 5.0000 3.0000 7.0000 0.0
SC_29961 50.0000 5.0000 3.0000 7.0000 0.0
SC_29962 50.0000 5.0000 3.0000 7.0000 0.0
SC_29963 50.0000 5.0000 3.0000 7.0000 0.0
SC_29964 50.0000 5.0000 3.0000 7.0000 0.0
SC_29965 50.0000 5.0000 3.0000 7.0000 0.0
SC_29966 50.0000 5.0000 3.0000 7.0000 0.0
SC_29967 50.0000 5.0000 3.0000 7.0000 0.0
SC_29968 50.0000 5.0000 3.0000 7.0000 0.0
SC_29969 50.0000 5.0000 3.0000 7.0000 0.0
SC_29970 50.0000 5.0000 3.0000 7.0000 0.0
SC_29971 50.0000 5.0000 3.0000 7.0000 0.0
SC_29972 50.0000 5.0000 3.0000 7.0000 0.0
SC_29973 50.0000 5.0000 3.0000 7.0000 0.0
SC_29974 50.0000 5.0000 3.0000 7.0000 0.0
SC_29975 50.0000 5.0000 3.0000 7.0000 0.0
SC_29976 50.0000 5.0000 3.0000 7.0000 0.0
SC_29977 50.0000 5.0000 3.0000 7.0000 0.0
SC_29978 50.0000 5.0000 3.0000 7.0000 0.0
SC_29979 50.0000 5.0000 3.0000 7.0000 0.0
SC_29980 50.0000 5.0000 3.0000 7.0000 0.0
SC_29981 50.0000 5.0000 3.0000 7.0000 0.0
SC_29982 50.0000 5.0000 3.0000 7.0000 0.0
SC_29983 50.0000 5.0000 3.0000 7.0000 0.0
SC_29984 50.0000 5.0000 3.0000 7.0000 0.0
SC_30197 50.0000 5.0000 3.0000 7.0000 0.0
SC_30198 50.0000 5.0000 3.0000 7.0000 0.0
SC_30204 50.0000 5.0000 3.0000 7.0000 0.0
SC_30205 50.0000 5.0000 3.0000 7.0000 0.0
SC_30206 50.0000 5.0000 3.0000 7.0000 0.0
SC_30207 50.0000 5.0000 3.0000 7.0000 0.0
SC_30208 50.0000 5.0000 3.0000 7.0000 0.0
SC_30209 50.0000 5.0000 3.0000 7.0000 0.0
SC_30210 50.0000 5.0000 3.0000 7.0000 0.0
SC_30211 50.0000 5.0000 3.0000 7.0000 0.0
SC_30212 50.0000 5.0000 3.0000 7.0000 0.0
SC_30213 50.0000 5.0000 3.0000 7.0000 0.0
SC_30214 50.0000 5.0000 3.0000 7.0000 0.0
SC_30215 50.0000 5.0000 3.0000 7.0000 0.0
SC_30216 50.0000 5.0000 3.0000 7.0000 0.0
SC_30217 50.0000 5.0000 3.0000 7.0000 0.0
SC_30218 50.0000 5.0000 3.0000 7.0000 0.0
SC_30219 50.0000 5.0000 3.0000 7.0000 0.0
SC_30220 50.0000 5.0000 3.0000 7.0000 0.0
SC_30221 50.0000 5.0000 3.0000 7.0000 0.0
SC_30222 50.0000 5.0000 3.0000 7.0000 0.0
SC_30223 50.0000 5.0000 3.0000 7.0000 0.0
SC_30224 50.0000 5.0000 3.0000 7.0000 0.0
SC_30225 50.0000 5.0000 3.0000 7.0000 0.0
SC_30226 50.0000 5.0000 3.0000 7.0000 0.0
SC_30227 50.0000 5.0000 3.0000 7.0000 0.0
SC_30228 50.0000 5.0000 3.0000 7.0000 0.0
SC_30229 50.0000 5.0000 3.0000 7.0000 0.0
SC_30230 50.0000 5.0000 3.0000 7.0000 0.0
SC_30231 50.0000 5.0000 3.0000 7.0000 0.0
SC_30232 50.0000 5.0000 3.0000 7.0000 0.0
SC_30233 50.0000 5.0000 3.0000 7.0000 0.0
SC_30234 50.0000 5.0000 3.0000 7.0000 0.0
SC_30235 50.0000 5.0000 3.0000 7.0000 0.0
SC_30236 50.0000 5.0000 3.0000 7.0000 0.0
SC_30237 50.0000 5.0000 3.0000 7.0000 0.0
SC_30238 50.0000 5.0000 3.0000 7.0000 0.0
SC_30239 50.0000 5.0000 3.0000 7.0000 0.0
SC_30240 50.0000 5.0000 3.0000 7.0000 0.0
SC_30241 50.0000 5.0000 3.0000 7.0000 0.0
SC_30242 50.0000 5.0000 3.0000 7.0000 0.0
SC_30243 50.0000 5.0000 3.0000 7.0000 0.0
SC_30244 50.0000 5.0000 3.0000 7.0000 0.0
SC_30245 50.0000 5.0000 3.0000 7.0000 0.0
SC_30246 50.0000 5.0000 3.0000 7.0000 0.0
SC_30247 50.0000 5.0000 3.0000 7.0000 0.0
SC_30248 50.0000 5.0000 3.0000 7.0000 0.0
SC_30249 50.0000 5.0000 3.0000 7.0000 0.0
SC_30250 50.0000 5.0000 3.0000 7.0000 0.0
SC_30251 50.0000 5.0000 3.0000 7.0000 0.0
SC_30252 50.0000 5.0000 3.0000 7.0000 0.0
SC_30253 50.0000 5.0000 3.0000 7.0000 0.0
SC_30254 50.0000 5.0000 3.0000 7.0000 0.0
SC_30255 50.0000 5.0000 3.0000 7.0000 0.0
SC_30256 50.0000 5.0000 3.0000 7.0000 0.0
SC_30257 50.0000 5.0000 3.0000 7.0000 0.0
SC_30258 50.0000 5.0000 3.0000 7.0000 0.0
SC_30259 50.0000 5.0000 3.0000 7.0000 0.0
SC_30260 50.0000 5.0000 3.0000 7.0000 0.0
SC_30261 50.0000 5.0000 3.0000 7.0000 0.0
SC_30262 50.0000 5.0000 3.0000 7.0000 0.0
SC_30488 50.0000 5.0000 3.0000 7.0000 0.0
SC_30489 50.0000 5.0000 3.0000 7.0000 0.0
SC_30490 50.0000 5.0000 3.0000 7.0000 0.0
SC_30491 50.0000 5.0000 3.0000 7.0000 0.0
SC_30492 50.0000 5.0000 3.0000 7.0000 0.0
SC_30493 50.0000 5.0000 3.0000 7.0000 0.0
SC_30494 50.0000 5.0000 3.0000 7.0000 0.0
SC_30495 50.0000 5.0000 3.0000 7.0000 0.0
SC_30496 50.0000 5.0000 3.0000 7.0000 0.0
SC_30497 50.0000 5.0000 3.0000 7.0000 0.0
SC_30498 50.0000 5.0000 3.0000 7.0000 0.0
SC_30499 50.0000 5.0000 3.0000 7.0000 0.0
SC_30500 50.0000 5.0000 3.0000 7.0000 0.0
SC_30501 50.0000 5.0000 3.0000 7.0000 0.0
SC_30502 50.0000 5.0000 3.0000 7.0000 0.0
SC_30503 50.0000 5.0000 3.0000 7.0000 0.0
SC_30504 50.0000 5.0000 3.0000 7.0000 0.0
SC_30506 50.0000 5.0000 3.0000 7.0000 0.0
SC_30507 50.0000 5.0000 3.0000 7.0000 0.0
SC_30508 50.0000 5.0000 3.0000 7.0000 0.0
SC_30509 50.0000 5.0000 3.0000 7.0000 0.0
SC_30510 50.0000 5.0000 3.0000 7.0000 0.0
SC_30511 50.0000 5.0000 3.0000 7.0000 0.0
SC_30512 50.0000 5.0000 3.0000 7.0000 0.0
SC_30513 50.0000 5.0000 3.0000 7.0000 0.0
SC_30514 50.0000 5.0000 3.0000 7.0000 0.0
SC_30515 50.0000 5.0000 3.0000 7.0000 0.0
SC_30516 50.0000 5.0000 3.0000 7.0000 0.0
SC_30517 50.0000 5.0000 3.0000 7.0000 0.0
SC_30518 50.0000 5.0000 3.0000 7.0000 0.0
SC_30519 50.0000 5.0000 3.0000 7.0000 0.0
SC_30520 50.0000 5.0000 3.0000 7.0000 0.0
SC_30521 50.0000 5.0000 3.0000 7.0000 0.0
SC_30522 50.0000 5.0000 3.0000 7.0000 0.0
SC_30523 50.0000 5.0000 3.0000 7.0000 0.0
SC_30524 50.0000 5.0000 3.0000 7.0000 0.0
SC_30525 50.0000 5.0000 3.0000 7.0000 0.0
SC_30526 50.0000 5.0000 3.0000 7.0000 0.0
SC_30527 50.0000 5.0000 3.0000 7.0000 0.0
SC_30528 50.0000 5.0000 3.0000 7.0000 0.0
SC_30529 50.0000 5.0000 3.0000 7.0000 0.0
SC_30530 50.0000 5.0000 3.0000 7.0000 0.0
SC_30531 50.0000 5.0000 3.0000 7.0000 0.0
SC_30532 50.0000 5.0000 3.0000 7.0000 0.0
SC_30533 50.0000 5.0000 3.0000 7.0000 0.0
SC_30534 50.0000 5.0000 3.0000 7.0000 0.0
SC_30535 50.0000 5.0000 3.0000 7.0000 0.0
SC_30536 50.0000 5.0000 3.0000 7.0000 0.0
SC_30537 50.0000 5.0000 3.0000 7.0000 0.0
SC_30538 50.0000 5.0000 3.0000 7.0000 0.0
SC_30539 50.0000 5.0000 3.0000 7.0000 0.0
SC_30540 50.0000 5.0000 3.0000 7.0000 0.0
SC_30541 50.0000 5.0000 3.0000 7.0000 0.0
SC_30542 50.0000 5.0000 3.0000 7.0000 0.0
SC_30773 50.0000 5.0000 3.0000 7.0000 0.0
SC_30774 50.0000 5.0000 3.0000 7.0000 0.0
SC_30775 50.0000 5.0000 3.0000 7.0000 0.0
SC_30776 50.0000 5.0000 3.0000 7.0000 0.0
SC_30779 50.0000 5.0000 3.0000 7.0000 0.0
SC_30780 50.0000 5.0000 3.0000 7.0000 0.0
SC_30781 50.0000 5.0000 3.0000 7.0000 0.0
SC_30782 50.0000 5.0000 3.0000 7.0000 0.0
SC_30783 50.0000 5.0000 3.0000 7.0000 0.0
SC_30787 50.0000 5.0000 3.0000 7.0000 0.0
SC_30788 50.0000 5.0000 3.0000 7.0000 0.0
SC_30789 50.0000 5.0000 3.0000 7.0000 0.0
SC_30790 50.0000 5.0000 3.0000 7.0000 0.0
SC_30791 50.0000 5.0000 3.0000 7.0000 0.0
SC_30792 50.0000 5.0000 3.0000 7.0000 0.0
SC_30793 50.0000 5.0000 3.0000 7.0000 0.0
SC_30794 50.0000 5.0000 3.0000 7.0000 0.0
SC_30795 50.0000 5.0000 3.0000 7.0000 0.0
SC_30796 50.0000 5.0000 3.0000 7.0000 0.0
SC_30797 50.0000 5.0000 3.0000 7.0000 0.0
SC_30798 50.0000 5.0000 3.0000 7.0000 0.0
SC_30799 50.0000 5.0000 3.0000 7.0000 0.0
SC_30800 50.0000 5.0000 3.0000 7.0000 0.0
SC_30801 50.0000 5.0000 3.0000 7.0000 0.0
SC_30802 50.0000 5.0000 3.0000 7.0000 0.0
SC_30803 50.0000 5.0000 3.0000 7.0000 0.0
SC_30804 50.0000 5.0000 3.0000 7.0000 0.0
SC_30805 50.0000 5.0000 3.0000 7.0000 0.0
SC_30806 50.0000 5.0000 3.0000 7.0000 0.0
SC_30807 50.0000 5.0000 3.0000 7.0000 0.0
SC_30808 50.0000 5.0000 3.0000 7.0000 0.0
SC_30809 50.0000 5.0000 3.0000 7.0000 0.0
SC_30810 50.0000 5.0000 3.0000 7.0000 0.0
SC_30811 50.0000 5.0000 3.0000 7.0000 0.0
SC_30812 50.0000 5.0000 3.0000 7.0000 0.0
SC_30813 50.0000 5.0000 3.0000 7.0000 0.0
SC_30814 50.0000 5.0000 3.0000 7.0000 0.0
SC_30815 50.0000 5.0000 3.0000 7.0000 0.0
SC_30816 50.0000 5.0000 3.0000 7.0000 0.0
SC_30817 50.0000 5.0000 3.0000 7.0000 0.0
SC_30818 50.0000 5.0000 3.0000 7.0000 0.0
SC_30819 50.0000 5.0000 3.0000 7.0000 0.0
SC_30820 50.0000 5.0000 3.0000 7.0000 0.0
SC_30821 50.0000 5.0000 3.0000 7.0000 0.0
SC_30822 50.0000 5.0000 3.0000 7.0000 0.0
SC_31061 50.0000 5.0000 3.0000 7.0000 0.0
SC_31063 50.0000 5.0000 3.0000 7.0000 0.0
SC_31064 50.0000 5.0000 3.0000 7.0000 0.0
SC_31065 50.0000 5.0000 3.0000 7.0000 0.0
SC_31066 50.0000 5.0000 3.0000 7.0000 0.0
SC_31069 50.0000 5.0000 3.0000 7.0000 0.0
SC_31070 50.0000 5.0000 3.0000 7.0000 0.0
SC_31071 50.0000 5.0000 3.0000 7.0000 0.0
SC_31072 50.0000 5.0000 3.0000 7.0000 0.0
SC_31073 50.0000 5.0000 3.0000 7.0000 0.0
SC_31074 50.0000 5.0000 3.0000 7.0000 0.0
SC_31075 50.0000 5.0000 3.0000 7.0000 0.0
SC_31076 50.0000 5.0000 3.0000 7.0000 0.0
SC_31077 50.0000 5.0000 3.0000 7.0000 0.0
SC_31078 50.0000 5.0000 3.0000 7.0000 0.0
SC_31079 50.0000 5.0000 3.0000 7.0000 0.0
SC_31080 50.0000 5.0000 3.0000 7.0000 0.0
SC_31081 50.0000 5.0000 3.0000 7.0000 0.0
SC_31082 50.0000 5.0000 3.0000 7.0000 0.0
SC_31083 50.0000 5.0000 3.0000 7.0000 0.0
SC_31084 50.0000 5.0000 3.0000 7.0000 0.0
SC_31085 50.0000 5.0000 3.0000 7.0000 0.0
SC_31086 50.0000 5.0000 3.0000 7.0000 0.0
SC_31087 50.0000 5.0000 3.0000 7.0000 0.0
SC_31088 50.0000 5.0000 3.0000 7.0000 0.0
SC_31089 50.0000 5.0000 3.0000 7.0000 0.0
SC_31090 50.0000 5.0000 3.0000 7.0000 0.0
SC_31091 50.0000 5.0000 3.0000 7.0000 0.0
SC_31092 50.0000 5.0000 3.0000 7.0000 0.0
SC_31093 50.0000 5.0000 3.0000 7.0000 0.0
SC_31094 50.0000 5.0000 3.0000 7.0000 0.0
SC_31095 50.0000 5.0000 3.0000 7.0000 0.0
SC_31096 50.0000 5.0000 3.0000 7.0000 0.0
SC_31097 50.0000 5.0000 3.0000 7.0000 0.0
SC_31098 50.0000 5.0000 3.0000 7.0000 0.0
SC_31099 50.0000 5.0000 3.0000 7.0000 0.0
SC_31100 50.0000 5.0000 3.0000 7.0000 0.0
SC_31101 50.0000 5.0000 3.0000 7.0000 0.0
SC_31102 50.0000 5.0000 3.0000 7.0000 0.0
SC_31103 50.0000 5.0000 3.0000 7.0000 0.0
SC_31104 50.0000 5.0000 3.0000 7.0000 0.0
SC_31351 50.0000 5.0000 3.0000 7.0000 0.0
SC_31352 50.0000 5.0000 3.0000 7.0000 0.0
SC_31353 50.0000 5.0000 3.0000 7.0000 0.0
SC_31354 50.0000 5.0000 3.0000 7.0000 0.0
SC_31355 50.0000 5.0000 3.0000 7.0000 0.0
SC_31356 50.0000 5.0000 3.0000 7.0000 0.0
SC_31357 50.0000 5.0000 3.0000 7.0000 0.0
SC_31358 50.0000 5.0000 3.0000 7.0000 0.0
SC_31359 50.0000 5.0000 3.0000 7.0000 0.0
SC_31360 50.0000 5.0000 3.0000 7.0000 0.0
SC_31361 50.0000 5.0000 3.0000 7.0000 0.0
SC_31362 50.0000 5.0000 3.0000 7.0000 0.0
SC_31363 50.0000 5.0000 3.0000 7.0000 0.0
SC_31364 50.0000 5.0000 3.0000 7.0000 0.0
SC_31365 50.0000 5.0000 3.0000 7.0000 0.0
SC_31366 50.0000 5.0000 3.0000 7.0000 0.0
SC_31367 50.0000 5.0000 3.0000 7.0000 0.0
SC_31368 50.0000 5.0000 3.0000 7.0000 0.0
SC_31369 50.0000 5.0000 3.0000 7.0000 0.0
SC_31370 50.0000 5.0000 3.0000 7.0000 0.0
SC_31371 50.0000 5.0000 3.0000 7.0000 0.0
SC_31372 50.0000 5.0000 3.0000 7.0000 0.0
SC_31373 50.0000 5.0000 3.0000 7.0000 0.0
SC_31374 50.0000 5.0000 3.0000 7.0000 0.0
SC_31375 50.0000 5.0000 3.0000 7.0000 0.0
SC_31376 50.0000 5.0000 3.0000 7.0000 0.0
SC_31377 50.0000 5.0000 3.0000 7.0000 0.0
SC_31378 50.0000 5.0000 3.0000 7.0000 0.0
SC_31379 50.0000 5.0000 3.0000 7.0000 0.0
SC_31380 50.0000 5.0000 3.0000 7.0000 0.0
SC_31381 50.0000 5.0000 3.0000 7.0000 0.0
SC_31382 50.0000 5.0000 3.0000 7.0000 0.0
SC_31383 50.0000 5.0000 3.0000 7.0000 0.0
SC_31384 50.0000 5.0000 3.0000 7.0000 0.0
SC_31385 50.0000 5.0000 3.0000 7.0000 0.0
SC_31386 50.0000 5.0000 3.0000 7.0000 0.0
SC_31631 50.0000 5.0000 3.0000 7.0000 0.0
SC_31632 50.0000 5.0000 3.0000 7.0000 0.0
SC_31633 50.0000 5.0000 3.0000 7.0000 0.0
SC_31634 50.0000 5.0000 3.0000 7.0000 0.0
SC_31635 50.0000 5.0000 3.0000 7.0000 0.0
SC_31636 50.0000 5.0000 3.0000 7.0000 0.0
SC_31637 50.0000 5.0000 3.0000 7.0000 0.0
SC_31638 50.0000 5.0000 3.0000 7.0000 0.0
SC_31639 50.0000 5.0000 3.0000 7.0000 0.0
SC_31640 50.0000 5.0000 3.0000 7.0000 0.0
SC_31641 50.0000 5.0000 3.0000 7.0000 0.0
SC_31642 50.0000 5.0000 3.0000 7.0000 0.0
SC_31643 50.0000 5.0000 3.0000 7.0000 0.0
SC_31644 50.0000 5.0000 3.0000 7.0000 0.0
SC_31645 50.0000 5.0000 3.0000 7.0000 0.0
SC_31646 50.0000 5.0000 3.0000 7.0000 0.0
SC_31647 50.0000 5.0000 3.0000 7.0000 0.0
SC_31648 50.0000 5.0000 3.0000 7.0000 0.0
SC_31649 50.0000 5.0000 3.0000 7.0000 0.0
SC_31650 50.0000 5.0000 3.0000 7.0000 0.0
SC_31651 50.0000 5.0000 3.0000 7.0000 0.0
SC_31652 50.0000 5.0000 3.0000 7.0000 0.0
SC_31653 50.0000 5.0000 3.0000 7.0000 0.0
SC_31654 50.0000 5.0000 3.0000 7.0000 0.0
SC_31655 50.0000 5.0000 3.0000 7.0000 0.0
SC_31656 50.0000 5.0000 3.0000 7.0000 0.0
SC_31657 50.0000 5.0000 3.0000 7.0000 0.0
SC_31658 50.0000 5.0000 3.0000 7.0000 0.0
SC_31659 50.0000 5.0000 3.0000 7.0000 0.0
SC_31660 50.0000 5.0000 3.0000 7.0000 0.0
SC_31661 50.0000 5.0000 3.0000 7.0000 0.0
SC_31662 50.0000 5.0000 3.0000 7.0000 0.0
SC_31663 50.0000 5.0000 3.0000 7.0000 0.0
SC_31666 50.0000 5.0000 3.0000 7.0000 0.0
SC_31667 50.0000 5.0000 3.0000 7.0000 0.0
SC_31912 50.0000 5.0000 3.0000 7.0000 0.0
SC_31913 50.0000 5.0000 3.0000 7.0000 0.0
SC_31914 50.0000 5.0000 3.0000 7.0000 0.0
SC_31915 50.0000 5.0000 3.0000 7.0000 0.0
SC_31916 50.0000 5.0000 3.0000 7.0000 0.0
SC_31917 50.0000 5.0000 3.0000 7.0000 0.0
SC_31918 50.0000 5.0000 3.0000 7.0000 0.0
SC_31919 50.0000 5.0000 3.0000 7.0000 0.0
SC_31920 50.0000 5.0000 3.0000 7.0000 0.0
SC_31921 50.0000 5.0000 3.0000 7.0000 0.0
SC_31922 50.0000 5.0000 3.0000 7.0000 0.0
SC_31923 50.0000 5.0000 3.0000 7.0000 0.0
SC_31924 50.0000 5.0000 3.0000 7.0000 0.0
SC_31925 50.0000 5.0000 3.0000 7.0000 0.0
SC_31926 50.0000 5.0000 3.0000 7.0000 0.0
SC_31927 50.0000 5.0000 3.0000 7.0000 0.0
SC_31928 50.0000 5.0000 3.0000 7.0000 0.0
SC_31929 50.0000 5.0000 3.0000 7.0000 0.0
SC_31930 50.0000 5.0000 3.0000 7.0000 0.0
SC_31931 50.0000 5.0000 3.0000 7.0000 0.0
SC_31932 50.0000 5.0000 3.0000 7.0000 0.0
SC_31933 50.0000 5.0000 3.0000 7.0000 0.0
SC_31934 50.0000 5.0000 3.0000 7.0000 0.0
SC_31935 50.0000 5.0000 3.0000 7.0000 0.0
SC_31936 50.0000 5.0000 3.0000 7.0000 0.0
SC_31937 50.0000 5.0000 3.0000 7.0000 0.0
SC_31938 50.0000 5.0000 3.0000 7.0000 0.0
SC_31939 50.0000 5.0000 3.0000 7.0000 0.0
SC_31940 50.0000 5.0000 3.0000 7.0000 0.0
SC_31941 50.0000 5.0000 3.0000 7.0000 0.0
SC_31942 50.0000 5.0000 3.0000 7.0000 0.0
SC_31943 50.0000 5.0000 3.0000 7.0000 0.0
SC_32193 50.0000 5.0000 3.0000 7.0000 0.0
SC_32194 50.0000 5.0000 3.0000 7.0000 0.0
SC_32195 50.0000 5.0000 3.0000 7.0000 0.0
SC_32196 50.0000 5.0000 3.0000 7.0000 0.0
SC_32197 50.0000 5.0000 3.0000 7.0000 0.0
SC_32198 50.0000 5.0000 3.0000 7.0000 0.0
SC_32199 50.0000 5.0000 3.0000 7.0000 0.0
SC_32200 50.0000 5.0000 3.0000 7.0000 0.0
SC_32201 50.0000 5.0000 3.0000 7.0000 0.0
SC_32202 50.0000 5.0000 3.0000 7.0000 0.0
SC_32203 50.0000 5.0000 3.0000 7.0000 0.0
SC_32204 50.0000 5.0000 3.0000 7.0000 0.0
SC_32205 50.0000 5.0000 3.0000 7.0000 0.0
SC_32206 50.0000 5.0000 3.0000 7.0000 0.0
SC_32207 50.0000 5.0000 3.0000 7.0000 0.0
SC_32208 50.0000 5.0000 3.0000 7.0000 0.0
SC_32209 50.0000 5.0000 3.0000 7.0000 0.0
SC_32210 50.0000 5.0000 3.0000 7.0000 0.0
SC_32211 50.0000 5.0000 3.0000 7.0000 0.0
SC_32212 50.0000 5.0000 3.0000 7.0000 0.0
SC_32213 50.0000 5.0000 3.0000 7.0000 0.0
SC_32214 50.0000 5.0000 3.0000 7.0000 0.0
SC_32215 50.0000 5.0000 3.0000 7.0000 0.0
SC_32216 50.0000 5.0000 3.0000 7.0000 0.0
SC_32217 50.0000 5.0000 3.0000 7.0000 0.0
SC_32218 50.0000 5.0000 3.0000 7.0000 0.0
SC_32219 50.0000 5.0000 3.0000 7.0000 0.0
SC_32220 50.0000 5.0000 3.0000 7.0000 0.0
SC_32221 50.0000 5.0000 3.0000 7.0000 0.0
SC_32222 50.0000 5.0000 3.0000 7.0000 0.0
SC_32223 50.0000 5.0000 3.0000 7.0000 0.0
SC_32473 50.0000 5.0000 3.0000 7.0000 0.0
SC_32474 50.0000 5.0000 3.0000 7.0000 0.0
SC_32475 50.0000 5.0000 3.0000 7.0000 0.0
SC_32476 50.0000 5.0000 3.0000 7.0000 0.0
SC_32477 50.0000 5.0000 3.0000 7.0000 0.0
SC_32478 50.0000 5.0000 3.0000 7.0000 0.0
SC_32479 50.0000 5.0000 3.0000 7.0000 0.0
SC_32480 50.0000 5.0000 3.0000 7.0000 0.0
SC_32481 50.0000 5.0000 3.0000 7.0000 0.0
SC_32482 50.0000 5.0000 3.0000 7.0000 0.0
SC_32483 50.0000 5.0000 3.0000 7.0000 0.0
SC_32484 50.0000 5.0000 3.0000 7.0000 0.0
SC_32485 50.0000 5.0000 3.0000 7.0000 0.0
SC_32486 50.0000 5.0000 3.0000 7.0000 0.0
SC_32487 50.0000 5.0000 3.0000 7.0000 0.0
SC_32488 50.0000 5.0000 3.0000 7.0000 0.0
SC_32489 50.0000 5.0000 3.0000 7.0000 0.0
SC_32490 50.0000 5.0000 3.0000 7.0000 0.0
SC_32491 50.0000 5.0000 3.0000 7.0000 0.0
SC_32492 50.0000 5.0000 3.0000 7.0000 0.0
SC_32493 50.0000 5.0000 3.0000 7.0000 0.0
SC_32494 50.0000 5.0000 3.0000 7.0000 0.0
SC_32495 50.0000 5.0000 3.0000 7.0000 0.0
SC_32496 50.0000 5.0000 3.0000 7.0000 0.0
SC_32497 50.0000 5.0000 3.0000 7.0000 0.0
SC_32498 50.0000 5.0000 3.0000 7.0000 0.0
SC_32499 50.0000 5.0000 3.0000 7.0000 0.0
SC_32500 50.0000 5.0000 3.0000 7.0000 0.0
SC_32501 50.0000 5.0000 3.0000 7.0000 0.0
SC_32502 50.0000 5.0000 3.0000 7.0000 0.0
SC_32759 50.0000 5.0000 3.0000 7.0000 0.0
SC_32760 50.0000 5.0000 3.0000 7.0000 0.0
SC_32761 50.0000 5.0000 3.0000 7.0000 0.0
SC_32762 50.0000 5.0000 3.0000 7.0000 0.0
SC_32763 50.0000 5.0000 3.0000 7.0000 0.0
SC_32764 50.0000 5.0000 3.0000 7.0000 0.0
SC_32765 50.0000 5.0000 3.0000 7.0000 0.0
SC_32766 50.0000 5.0000 3.0000 7.0000 0.0
SC_32767 50.0000 5.0000 3.0000 7.0000 0.0
SC_32768 50.0000 5.0000 3.0000 7.0000 0.0
SC_32769 50.0000 5.0000 3.0000 7.0000 0.0
SC_32770 50.0000 5.0000 3.0000 7.0000 0.0
SC_32771 50.0000 5.0000 3.0000 7.0000 0.0
SC_32772 50.0000 5.0000 3.0000 7.0000 0.0
SC_32773 50.0000 5.0000 3.0000 7.0000 0.0
SC_32774 50.0000 5.0000 3.0000 7.0000 0.0
SC_32775 50.0000 5.0000 3.0000 7.0000 0.0
SC_32776 50.0000 5.0000 3.0000 7.0000 0.0
SC_32777 50.0000 5.0000 3.0000 7.0000 0.0
SC_32778 50.0000 5.0000 3.0000 7.0000 0.0
SC_32779 50.0000 5.0000 3.0000 7.0000 0.0
SC_32780 50.0000 5.0000 3.0000 7.0000 0.0
SC_32781 50.0000 5.0000 3.0000 7.0000 0.0
SC_33039 50.0000 5.0000 3.0000 7.0000 0.0
SC_33040 50.0000 5.0000 3.0000 7.0000 0.0
SC_33041 50.0000 5.0000 3.0000 7.0000 0.0
SC_33042 50.0000 5.0000 3.0000 7.0000 0.0
SC_33043 50.0000 5.0000 3.0000 7.0000 0.0
SC_33044 50.0000 5.0000 3.0000 7.0000 0.0
SC_33045 50.0000 5.0000 3.0000 7.0000 0.0
SC_33046 50.0000 5.0000 3.0000 7.0000 0.0
SC_33047 50.0000 5.0000 3.0000 7.0000 0.0
SC_33048 50.0000 5.0000 3.0000 7.0000 0.0
SC_33049 50.0000 5.0000 3.0000 7.0000 0.0
SC_33050 50.0000 5.0000 3.0000 7.0000 0.0
SC_33051 50.0000 5.0000 3.0000 7.0000 0.0
SC_33052 50.0000 5.0000 3.0000 7.0000 0.0
SC_33053 50.0000 5.0000 3.0000 7.0000 0.0
SC_33054 50.0000 5.0000 3.0000 7.0000 0.0
SC_33055 50.0000 5.0000 3.0000 7.0000 0.0
SC_33056 50.0000 5.0000 3.0000 7.0000 0.0
SC_33057 50.0000 5.0000 3.0000 7.0000 0.0
SC_33058 50.0000 5.0000 3.0000 7.0000 0.0
SC_33316 50.0000 5.0000 3.0000 7.0000 0.0
SC_33317 50.0000 5.0000 3.0000 7.0000 0.0
SC_33318 50.0000 5.0000 3.0000 7.0000 0.0
SC_33319 50.0000 5.0000 3.0000 7.0000 0.0
SC_33320 50.0000 5.0000 3.0000 7.0000 0.0
SC_33321 50.0000 5.0000 3.0000 7.0000 0.0
SC_33322 50.0000 5.0000 3.0000 7.0000 0.0
SC_33323 50.0000 5.0000 3.0000 7.0000 0.0
SC_33324 50.0000 5.0000 3.0000 7.0000 0.0
SC_33325 50.0000 5.0000 3.0000 7.0000 0.0
SC_33326 50.0000 5.0000 3.0000 7.0000 0.0
SC_33327 50.0000 5.0000 3.0000 7.0000 0.0
SC_33328 50.0000 5.0000 3.0000 7.0000 0.0
SC_33329 50.0000 5.0000 3.0000 7.0000 0.0
SC_33330 50.0000 5.0000 3.0000 7.0000 0.0
SC_33331 50.0000 5.0000 3.0000 7.0000 0.0
SC_33332 50.0000 5.0000 3.0000 7.0000 0.0
SC_33333 50.0000 5.0000 3.0000 7.0000 0.0
SC_33334 50.0000 5.0000 3.0000 7.0000 0.0
SC_33593 50.0000 5.0000 3.0000 7.0000 0.0
SC_33594 50.0000 5.0000 3.0000 7.0000 0.0
SC_33595 50.0000 5.0000 3.0000 7.0000 0.0
SC_33596 50.0000 5.0000 3.0000 7.0000 0.0
SC_33597 50.0000 5.0000 3.0000 7.0000 0.0
SC_33598 50.0000 5.0000 3.0000 7.0000 0.0
SC_33599 50.0000 5.0000 3.0000 7.0000 0.0
SC_33600 50.0000 5.0000 3.0000 7.0000 0.0
SC_33601 50.0000 5.0000 3.0000 7.0000 0.0
SC_33602 50.0000 5.0000 3.0000 7.0000 0.0
SC_33603 50.0000 5.0000 3.0000 7.0000 0.0
SC_33604 50.0000 5.0000 3.0000 7.0000 0.0
SC_33605 50.0000 5.0000 3.0000 7.0000 0.0
SC_33606 50.0000 5.0000 3.0000 7.0000 0.0
SC_33607 50.0000 5.0000 3.0000 7.0000 0.0
SC_33608 50.0000 5.0000 3.0000 7.0000 0.0
SC_33609 50.0000 5.0000 3.0000 7.0000 0.0
SC_33869 50.0000 5.0000 3.0000 7.0000 0.0
SC_33870 50.0000 5.0000 3.0000 7.0000 0.0
SC_33871 50.0000 5.0000 3.0000 7.0000 0.0
SC_33872 50.0000 5.0000 3.0000 7.0000 0.0
SC_33873 50.0000 5.0000 3.0000 7.0000 0.0
SC_33874 50.0000 5.0000 3.0000 7.0000 0.0
SC_33875 50.0000 5.0000 3.0000 7.0000 0.0
SC_33876 50.0000 5.0000 3.0000 7.0000 0.0
SC_33877 50.0000 5.0000 3.0000 7.0000 0.0
SC_33878 50.0000 5.0000 3.0000 7.0000 0.0
SC_33879 50.0000 5.0000 3.0000 7.0000 0.0
SC_33880 50.0000 5.0000 3.0000 7.0000 0.0
SC_33881 50.0000 5.0000 3.0000 7.0000 0.0
SC_33882 50.0000 5.0000 3.0000 7.0000 0.0
SC_33883 50.0000 5.0000 3.0000 7.0000 0.0
SC_34144 50.0000 5.0000 3.0000 7.0000 0.0
SC_34145 50.0000 5.0000 3.0000 7.0000 0.0
SC_34146 50.0000 5.0000 3.0000 7.0000 0.0
SC_34147 50.0000 5.0000 3.0000 7.0000 0.0
SC_34148 50.0000 5.0000 3.0000 7.0000 0.0
SC_34149 50.0000 5.0000 3.0000 7.0000 0.0
SC_34150 50.0000 5.0000 3.0000 7.0000 0.0
SC_34151 50.0000 5.0000 3.0000 7.0000 0.0
SC_34152 50.0000 5.0000 3.0000 7.0000 0.0
SC_34153 50.0000 5.0000 3.0000 7.0000 0.0
SC_34155 50.0000 5.0000 3.0000 7.0000 0.0
SC_34418 50.0000 5.0000 3.0000 7.0000 0.0
SC_34419 50.0000 5.0000 3.0000 7.0000 0.0
SC_34420 50.0000 5.0000 3.0000 7.0000 0.0
SC_34421 50.0000 5.0000 3.0000 7.0000 0.0
SC_34422 50.0000 5.0000 3.0000 7.0000 0.0
SC_34423 50.0000 5.0000 3.0000 7.0000 0.0
SC_34424 50.0000 5.0000 3.0000 7.0000 0.0
SC_34694 50.0000 5.0000 3.0000 7.0000 0.0
SC_34695 50.0000 5.0000 3.0000 7.0000 0.0
SC_34696 50.0000 5.0000 3.0000 7.0000 0.0
SC_34697 50.0000 5.0000 3.0000 7.0000 0.0
SC_34698 50.0000 5.0000 3.0000 7.0000 0.0
SC_34969 50.0000 5.0000 3.0000 7.0000 0.0
SC_34970 50.0000 5.0000 3.0000 7.0000 0.0

[JUNCTIONS]
N_2173075007_c8d38db 24.1900 8.7773 0.0 0.0
N_2173075008_0583379 24.1900 8.7773 0.0 0.0
N_2173075009_c397ed3 24.3000 8.4517 0.0 0.0
N_2173075101_d379d5f 24.1000 11.5005 0.0 0.0
N_2173075102_5d8f77e 24.1000 11.5005 0.0 0.0
N_2173075103_fef184b 24.1100 10.7201 0.0 0.0
N_2173075104_7718eb1 24.1100 11.5918 0.0 0.0
N_2173075105_de425c7 24.1600 10.6701 0.0 0.0
N_2173075106_54c6b35 24.1600 10.6701 0.0 0.0
N_2173075202_ecc75ab 24.0500 11.3278 0.0 0.0
N_2173075203_e6318d6 23.9540 9.4300 0.0 0.0
N_2173075204_645c7a5 24.0500 11.3278 0.0 0.0
N_2173075205_7e2d2df 23.9620 9.4220 0.0 0.0
N_2173075206_47d0ea9 24.0600 11.3720 0.0 0.0
N_2173075207_ea48a99 24.0600 11.6553 0.0 0.0
N_2173076301_eccf1c9 23.7740 11.1909 0.0 0.0
N_2173076302_50e6bfa 23.7820 11.1829 0.0 0.0
N_2173077301_91e67ea 23.5690 8.8260 0.0 0.0
N_2173077302_31cf53a 23.5650 8.8300 0.0 0.0
N_2173077303_637beba 23.4210 13.6280 0.0 0.0
N_2173077304_05f2b19 23.4080 13.6410 0.0 0.0
N_2173077306_0d7f3b5 23.2400 8.9238 0.0 0.0
N_2173078301_7c666b9 23.2550 7.7363 0.0 0.0
N_2173079301_ad7d291 23.2760 8.7971 0.0 0.0
N_2173079302_caab2e5 23.2760 8.7971 0.0 0.0
N_2173079303_8c5eadc 23.2840 8.7891 0.0 0.0
N_2173079304_01a0cb0 24.8540 8.8763 0.0 0.0
N_2173079305_f14a5e3 25.0000 7.5985 0.0 0.0
N_2173079401_50bca1f 23.3060 12.7807 0.0 0.0
N_2173079402_94599fe 23.3060 12.7807 0.0 0.0
N_2174055507_ec0244e 27.5000 5.1455 0.0 0.0
N_2174055607_30c8260 27.1690 8.2200 0.0 0.0
N_2174055608_4c705b5 26.8360 6.5751 0.0 0.0
N_2174056505_b208c3d 26.4800 7.9520 0.0 0.0
N_2174056508_f723d7a 26.3910 8.0410 0.0 0.0
N_2174056601_207dbad 27.1210 8.2680 0.0 0.0
N_2174056602_690ab9d 26.8180 6.5931 0.0 0.0
N_2174056603_77476e2 27.0790 8.3838 0.0 0.0
N_2174056604_0c4fef1 26.8000 7.0196 0.0 0.0
N_2174056605_86c1ce5 26.7840 8.6788 0.0 0.0
N_2174056606_cbc6b4e 26.7710 8.6918 0.0 0.0
N_2174056608_e221e8f 26.7340 7.8110 0.0 0.0
N_2174056610_b2cffd0 26.7140 7.8310 0.0 0.0
N_2174056613_b7ad54a 26.6830 10.5276 0.0 0.0
N_2174056614_b598990 27.0500 9.8628 0.0 0.0
N_2174056615_84a3a8c 26.2650 10.6478 0.0 0.0
N_2174056617_699a582 26.7380 13.5554 0.0 0.0
N_2174057410_34e9311 25.8330 8.1434 0.0 0.0
N_2174057411_71b2d38 25.8520 15.0473 0.0 0.0
N_2174057504_c0d746e 25.9280 24.0562 0.0 0.0
N_2174057505_958ef9f 25.8720 38.6393 0.0 0.0
N_2174057506_955de55 25.8920 38.6193 0.0 0.0
N_2174057601_52abd7d 26.1240 21.6649 0.0 0.0
N_2174057602_33187ef 26.6480 13.6454 0.0 0.0
N_2174057603_adab68c 26.6350 13.6584 0.0 0.0
N_2174057604_0bc0f8b 26.0820 21.7069 0.0 0.0
N_2174057605_59fa55b 26.6580 13.6354 0.0 0.0
N_2174057606_141d93d 26.6350 13.6584 0.0 0.0
N_2174057607_529b015 26.0220 14.2714 0.0 0.0
N_2174057608_7f04778 26.0160 14.2774 0.0 0.0
N_2174057610_194680a 26.0160 14.2774 0.0 0.0
N_2174057611_4d900a7 26.0100 14.2834 0.0 0.0
N_2174057612_25538b8 26.6830 12.5535 0.0 0.0
N_2174057613_ab0fbf4 26.0030 15.4422 0.0 0.0
N_2174057614_faa298b 26.6990 12.5375 0.0 0.0
N_2174057616_91f1d43 26.7040 12.5325 0.0 0.0
N_2174057617_8dc65a7 26.7090 14.1752 0.0 0.0
N_2174057618_6a58d48 25.9790 22.2966 0.0 0.0
N_2174057621_7cd9ad8 25.9570 23.9537 0.0 0.0
N_2174058307_e669fd8 25.9970 10.4059 0.0 0.0
N_2174058308_985ffcd 25.9980 11.0872 0.0 0.0
N_2174058401_74c1078 25.7970 10.2903 0.0 0.0
N_2174058402_6f747ed 25.8700 10.2173 0.0 0.0
N_2174058403_59717bd 25.9660 11.9980 0.0 0.0
N_2174058404_920a299 25.9690 11.9950 0.0 0.0
N_2174058405_316f96d 25.9740 11.9900 0.0 0.0
N_2174058406_92d5ed0 25.9810 11.9830 0.0 0.0
N_2174058407_4535677 25.9880 10.4149 0.0 0.0
N_2174058408_59956cf 25.9950 10.4079 0.0 0.0
N_2174058409_fafad4c 25.9560 12.8561 0.0 0.0
N_2174058411_19d11fe 25.9410 8.8206 0.0 0.0
N_2174058412_e2adc4e 25.7740 7.6791 0.0 0.0
N_2174058413_b852792 25.7560 7.6971 0.0 0.0
N_2174058414_9f300ae 25.9330 8.8286 0.0 0.0
N_2174058415_7034bc8 25.7470 7.7061 0.0 0.0
N_2174058501_b706378 25.9040 41.5859 0.0 0.0
N_2174058502_4df8f84 25.9200 24.0642 0.0 0.0
N_2174059401_0eeae2d 25.7310 5.5788 0.0 0.0
N_2174059402_926c5ed 25.9030 7.1097 0.0 0.0
N_2174059403_7b9ad12 25.7100 7.3027 0.0 0.0
N_2174059404_bc9156b 25.6870 7.3257 0.0 0.0
N_2174059405_b163762 25.8700 8.2920 0.0 0.0
N_2174064804_6a236bd 28.3500 7.0227 0.0 0.0
N_2174065601_e5a21a8 27.7000 7.7564 0.0 0.0
N_2174065701_3e5658c 27.5290 8.9030 0.0 0.0
N_2174065702_c6b825c 28.8000 7.6320 0.0 0.0
N_2174065703_abd45e5 26.3360 10.0960 0.0 0.0
N_2174065801_dbbc674 26.2760 9.0947 0.0 0.0
N_2174065802_a276565 28.5000 6.6404 0.0 0.0
N_2174065803_4b06d27 27.2650 8.7148 0.0 0.0
N_2174065903_6e1dbc9 26.8000 8.0906 0.0 0.0
N_2174065904_0e4e5d5 27.0000 8.8995 0.0 0.0
N_2174065905_093970c 27.1480 7.2840 0.0 0.0
N_2174065906_2009e9f 26.8040 9.1494 0.0 0.0
N_2174065907_7aaf0b5 27.2000 8.4567 0.0 0.0
N_2174066301_66435e9 27.2000 8.7664 0.0 0.0
N_2174066402_bc2985b 27.0040 13.9646 0.0 0.0
N_2174066403_5c991f8 26.5920 17.1838 0.0 0.0
N_2174066404_f66a918 26.5670 17.0078 0.0 0.0
N_2174066405_1c6ea98 26.5650 17.0098 0.0 0.0
N_2174066406_00656e4 26.5620 16.1122 0.0 0.0
N_2174066504_b99e1a6 26.5590 17.8932 0.0 0.0
N_2174066701_c88f0c1 27.8200 6.8471 0.0 0.0
N_2174066702_29415f4 26.3950 8.2721 0.0 0.0
N_2174066703_b4cc312 26.2920 8.3751 0.0 0.0
N_2174066704_a0837f1 27.5000 7.1671 0.0 0.0
N_2174066705_76cc05c 26.1590 8.5081 0.0 0.0
N_2174066706_924ed1e 26.2270 8.4401 0.0 0.0
N_2174066707_e246282 26.1570 8.5101 0.0 0.0
N_2174066708_7938c9d 26.2020 8.2670 0.0 0.0
N_2174066709_2dd74f8 28.0000 6.8529 0.0 0.0
N_2174066710_1dd49d5 26.1820 7.2500 0.0 0.0
N_2174066711_2ee2019 26.1520 7.2800 0.0 0.0
N_2174066712_e956be6 28.3000 6.1320 0.0 0.0
N_2174066713_521aff6 26.3300 8.1020 0.0 0.0
N_2174066714_05a7a7c 26.2280 8.2040 0.0 0.0
N_2174066715_407a021 26.1670 8.5365 0.0 0.0
N_2174066716_51898ea 26.1450 8.5585 0.0 0.0
N_2174066717_f4b97c9 26.3560 10.5642 0.0 0.0
N_2174066801_31cb562 28.9000 7.2086 0.0 0.0
N_2174066802_9ae598a 27.3880 9.2233 0.0 0.0
N_2174066803_d115dc2 28.8000 7.6720 0.0 0.0
N_2174066804_b2bea22 27.4990 8.8474 0.0 0.0
N_2174066806_28c8fd9 28.2000 8.6184 0.0 0.0
N_2174066807_9a2b275 27.6000 7.1035 0.0 0.0
N_2174066808_9711398 26.1570 8.5465 0.0 0.0
N_2174066901_013c529 26.7280 9.9295 0.0 0.0
N_2174066902_5cff9ec 28.3000 7.4296 0.0 0.0
N_2174066903_f9d3d1b 26.6610 9.9052 0.0 0.0
N_2174066904_4fda390 26.5920 10.6141 0.0 0.0
N_2174066905_96c9ba0 26.4020 9.4275 0.0 0.0
N_2174067501_1867748 26.5560 17.5937 0.0 0.0
N_2174067502_54dc082 26.5520 15.6348 0.0 0.0
N_2174067503_98e8886 26.5490 15.6203 0.0 0.0
N_2174067504_0d8d4db 26.5490 15.6203 0.0 0.0
N_2174067602_6bb4a4c 26.3770 12.2827 0.0 0.0
N_2174067603_8db63d4 26.4060 12.2537 0.0 0.0
N_2174067605_20fb02b 26.4920 13.3481 0.0 0.0
N_2174067606_b670cbb 26.5460 13.6229 0.0 0.0
N_2174067607_9f0b813 26.5430 10.9785 0.0 0.0
N_2174067608_7f9a5cc 26.5420 10.9795 0.0 0.0
N_2174067801_c3278a1 26.3710 8.6560 0.0 0.0
N_2174067802_fc03544 26.1370 7.4017 0.0 0.0
N_2174067803_a19ec81 26.1420 8.2432 0.0 0.0
N_2174067804_1f05a9e 26.1120 8.2732 0.0 0.0
N_2174067805_7a50d0c 26.3250 8.1325 0.0 0.0
N_2174067806_5d06bd2 26.1020 8.2832 0.0 0.0
N_2174067807_47d0955 28.2000 6.4847 0.0 0.0
N_2174067808_de41e6b 26.1400 7.2920 0.0 0.0
N_2174067809_32e0fc7 26.0970 7.3350 0.0 0.0
N_2174067901_bb47103 26.1040 8.5807 0.0 0.0
N_2174067902_67704fd 26.0920 8.4055 0.0 0.0
N_2174067903_05cf310 26.0820 8.9124 0.0 0.0
N_2174067904_251d0f6 26.0760 8.9184 0.0 0.0
N_2174067905_d787ac3 26.0570 7.7469 0.0 0.0
N_2174067906_d629a2d 26.0510 7.7529 0.0 0.0
N_2174068901_24863db 26.0370 7.7669 0.0 0.0
N_2174068902_c4d2c55 26.0220 9.2609 0.0 0.0
N_2174068903_4fb4b15 25.9770 9.3059 0.0 0.0
N_2174070305_5d9bb1e 26.4550 13.1629 0.0 0.0
N_2174070306_26c17b9 26.7590 9.4609 0.0 0.0
N_2174070307_d3dc694 27.0810 9.5371 0.0 0.0
N_2174070402_a76b34d 23.3300 12.5873 0.0 0.0
N_2174070403_8fa0fd5 23.3560 16.3804 0.0 0.0
N_2174070404_1d2870f 25.7590 15.0376 0.0 0.0
N_2174070405_422f8bd 26.0230 14.4759 0.0 0.0
N_2174070406_6e6ac82 26.2280 14.2040 0.0 0.0
N_2174070501_08bb008 23.4320 14.4341 0.0 0.0
N_2174070502_facc8b5 23.4920 9.0440 0.0 0.0
N_2174071301_a1fc362 27.1870 9.4311 0.0 0.0
N_2174071302_7b19441 25.0000 11.8369 0.0 0.0
N_2174071401_2f6f127 25.0000 13.3157 0.0 0.0
N_2174071402_9e2a70b 24.8780 9.9793 0.0 0.0
N_2174071501_55e7eff 23.5020 8.2386 0.0 0.0
N_2174071502_dd189bb 23.5820 11.1816 0.0 0.0
N_2174072301_462a53d 24.7270 10.9737 0.0 0.0
N_2174072401_f7ba51b 24.5050 11.3950 0.0 0.0
N_2174072402_dc2f7f2 24.3570 12.0750 0.0 0.0
N_2174072403_b5488d5 24.2620 10.9586 0.0 0.0
N_2174072404_8ce77f6 25.3380 8.6529 0.0 0.0
N_2174072501_fdb070e 23.6270 11.6140 0.0 0.0
N_2174072502_1c06d1b 23.8270 11.4140 0.0 0.0
N_2174072503_f5fe30b 24.0370 12.2087 0.0 0.0
N_2174072504_a64400d 24.0410 7.0790 0.0 0.0
N_2174072505_91d9843 24.0680 11.0588 0.0 0.0
N_2174073401_4b0a359 25.5000 11.0424 0.0 0.0
N_2174073402_4d5a704 26.7000 22.4488 0.0 0.0
N_2174073403_e32d774 26.2220 18.1282 0.0 0.0
N_2174073501_864fcb0 24.0020 12.2437 0.0 0.0
N_2174073502_690368b 24.1150 13.0910 0.0 0.0
N_2174073503_8a28fea 24.1860 10.9573 0.0 0.0
N_2174073504_bdda676 25.7000 8.7690 0.0 0.0
N_2174073505_09b1520 24.0580 10.7691 0.0 0.0
N_2174073506_b13d289 25.4900 8.2101 0.0 0.0
N_2174073507_6ff82e4 24.1500 12.0957 0.0 0.0
N_2174074501_6aa53dd 26.0000 6.6865 0.0 0.0
N_2174074502_74d6112 25.3270 8.4358 0.0 0.0
N_2174074503_80f6ba9 24.1110 9.7889 0.0 0.0
N_2174074504_9f50a88 25.3180 8.5819 0.0 0.0
N_2174074505_7b17eae 24.9590 8.9409 0.0 0.0
N_2174074506_80711e8 25.9410 6.7455 0.0 0.0
N_2174074507_d25c302 25.0350 8.3970 0.0 0.0
N_2174074508_c1e7314 25.5000 10.0772 0.0 0.0
N_2174074509_f168de7 25.6930 7.7390 0.0 0.0
N_2174074510_f8c1891 25.1220 9.5358 0.0 0.0
N_2174074511_7782fbf 25.2300 9.4278 0.0 0.0
N_2174074512_00707bb 25.5870 9.0708 0.0 0.0
N_2174074513_0c26500 24.3160 10.3418 0.0 0.0
N_2174075501_09ab23f 25.5980 20.5136 0.0 0.0
N_2174075502_c6a0582 25.6110 19.9536 0.0 0.0
N_2174075503_a0b769a 25.6200 17.0284 0.0 0.0
N_2174075504_9ada7e9 25.6320 14.9914 0.0 0.0
N_2174075505_c9d1c39 24.4140 18.2344 0.0 0.0
N_2174076501_e528d4f 25.6500 8.7820 0.0 0.0
N_2174076502_d2e3457 25.6600 12.9157 0.0 0.0
N_2174076503_e468bbd 25.6700 21.1955 0.0 0.0
N_2174076504_e017626 25.6790 21.1865 0.0 0.0
N_2174076505_bb124c2 24.5260 12.3310 0.0 0.0
N_2174077501_29d0148 25.7960 16.5440 0.0 0.0
N_2174077502_4b0e57f 25.8130 10.0124 0.0 0.0
N_2174077503_03d62d4 25.8280 14.0788 0.0 0.0
N_2174077504_3ad7690 25.8430 14.3607 0.0 0.0
N_2174077505_b0b8470 24.6190 15.5847 0.0 0.0
N_2174078001_dd18539 25.9940 9.7740 0.0 0.0
N_2174078002_c315785 25.9480 9.8200 0.0 0.0
N_2174078003_0110b37 25.9640 9.7750 0.0 0.0
N_2174078004_93b605e 25.9320 9.8070 0.0 0.0
N_2174078005_1707453 25.9280 9.1915 0.0 0.0
N_2174078006_3a2d6f1 25.9240 9.1351 0.0 0.0
N_2174078007_077b319 25.8720 9.5681 0.0 0.0
N_2174078008_6ed1690 25.9220 9.1371 0.0 0.0
N_2174078009_987a27a 25.9190 9.1215 0.0 0.0
N_2174078010_ebd909d 26.9500 7.8624 0.0 0.0
N_2174078101_9a2bdc0 26.7500 8.6901 0.0 0.0
N_2174078103_810fcf7 26.9290 8.5111 0.0 0.0
N_2174078105_1648b80 26.8970 10.3271 0.0 0.0
N_2174078107_85cfd98 25.8700 9.1705 0.0 0.0
N_2174078108_7788b80 26.8540 11.5780 0.0 0.0
N_2174078109_443280f 26.8130 11.0438 0.0 0.0
N_2174078110_dfebf00 25.8660 9.1745 0.0 0.0
N_2174078111_58acef3 25.8970 9.1435 0.0 0.0
N_2174078201_215ac21 26.7330 10.1349 0.0 0.0
N_2174078202_b9eac77 26.6920 8.6340 0.0 0.0
N_2174078203_1a38703 26.7680 11.0888 0.0 0.0
N_2174078204_add6a8f 26.6460 9.9536 0.0 0.0
N_2174078205_2d9ce33 26.6240 9.9756 0.0 0.0
N_2174078302_61ea8da 25.5800 10.9204 0.0 0.0
N_2174078303_570bc4c 25.5740 10.9264 0.0 0.0
N_2174078304_95e0b5e 25.6140 9.9806 0.0 0.0
N_2174078305_3db7c74 24.9340 13.9215 0.0 0.0
N_2174078306_896d62d 25.3260 13.5295 0.0 0.0
N_2174078307_5c9d15f 24.9290 13.9265 0.0 0.0
N_2174078308_4577d82 25.5210 14.8249 0.0 0.0
N_2174078309_17edf1a 25.5000 14.8459 0.0 0.0
N_2174078401_25ed1a3 25.8570 13.4303 0.0 0.0
N_2174078405_5ac499e 25.8680 13.4193 0.0 0.0
N_2174078407_244c6bc 24.7300 11.3441 0.0 0.0
N_2174078409_fbfa0b1 25.8890 9.5430 0.0 0.0
N_2174078410_1e58c1e 25.3590 10.2356 0.0 0.0
N_2174078412_df54b12 25.9000 10.1741 0.0 0.0
N_2174078413_906f4ba 24.7400 11.1654 0.0 0.0
N_2174079001_2f85de4 27.2000 10.9592 0.0 0.0
N_2174079003_f93006e 26.5500 8.9040 0.0 0.0
N_2174079005_9d537ae 27.4500 10.7092 0.0 0.0
N_2174079007_51e5a2d 26.6000 11.5592 0.0 0.0
N_2174079008_0fd7f6a 26.8390 11.6294 0.0 0.0
N_2174079010_9c74b09 27.5830 16.5241 0.0 0.0
N_2174079101_0bbf66b 25.7610 11.4631 0.0 0.0
N_2174079102_aceac56 25.8720 7.7541 0.0 0.0
N_2174079103_a357927 25.7570 8.9391 0.0 0.0
N_2174079104_2254baa 25.9100 8.7861 0.0 0.0
N_2174079105_98ab8fe 25.9060 8.7901 0.0 0.0
N_2174079106_5141dd1 25.8970 8.7991 0.0 0.0
N_2174079201_57a8017 25.7510 9.7314 0.0 0.0
N_2174079202_84ff5ce 25.8800 9.6024 0.0 0.0
N_2174079203_c7fb5ab 25.8720 9.6104 0.0 0.0
N_2174079204_00f0299 25.8650 9.8185 0.0 0.0
N_2174079205_85d07d3 25.6460 10.0375 0.0 0.0
N_2174079206_3591fa1 25.6430 9.7890 0.0 0.0
N_2174079207_dc5f779 25.6260 10.3829 0.0 0.0
N_2174079208_2a5516d 25.8150 10.1939 0.0 0.0
N_2174079209_e8a63d7 25.5170 10.4919 0.0 0.0
N_2174079210_5adebb6 25.5020 11.3666 0.0 0.0
N_2174079301_e9933f0 24.9260 15.4199 0.0 0.0
N_2174079302_7a8eb2a 25.4760 12.6266 0.0 0.0
N_2174079303_6589684 26.5640 9.9012 0.0 0.0
N_2174079304_e10fed8 24.9230 13.1796 0.0 0.0
N_2174079305_fa371f3 25.4600 12.6426 0.0 0.0
N_2174079306_fcee123 25.1940 12.9086 0.0 0.0
N_2174079307_e581276 25.4460 12.6566 0.0 0.0
N_2174079308_9cc8a30 24.9210 13.1816 0.0 0.0
N_2174079309_228199b 26.5000 9.5628 0.0 0.0
N_2174079310_888befc 24.9200 12.5120 0.0 0.0
N_2174079311_8c105f4 25.7300 10.3328 0.0 0.0
N_2174079313_2799e6c 24.8680 11.1665 0.0 0.0
N_2174079314_67018f5 25.7760 10.8198 0.0 0.0
N_2174079315_e8fb989 25.4790 11.1168 0.0 0.0
N_2174079316_eab4b76 25.7570 10.1522 0.0 0.0
N_2174079317_88abc5b 25.4580 10.4512 0.0 0.0
N_2174079401_a2156fa 24.8130 11.4809 0.0 0.0
N_2174079402_fb992b1 24.8530 11.5362 0.0 0.0
N_2174079403_1dd0f17 24.9180 11.1165 0.0 0.0
N_2174139701_202041f 38.5580 9.4660 0.0 0.0
N_2174139702_e60658c 38.1230 16.6086 0.0 0.0
N_2174139801_3d230fb 39.0000 6.2521 0.0 0.0
N_2174148401_d3a2233 43.0000 5.2997 0.0 0.0
N_2174149301_bd9125d 41.4000 4.1547 0.0 0.0
N_2174149302_eb78ff3 41.2960 4.1360 0.0 0.0
N_2174149303_969e18c 41.2000 4.2320 0.0 0.0
N_2174149401_23afa33 42.4000 4.3400 0.0 0.0
N_2174149402_0a0c8af 42.1320 4.6080 0.0 0.0
N_2174149403_103f132 41.5000 3.0961 0.0 0.0
N_2174149404_a759b18 41.8000 2.9174 0.0 0.0
N_2175049801_cf91e2b 25.8000 8.9855 0.0 0.0
N_2175049802_32ce649 25.7880 8.9975 0.0 0.0
N_2175049803_9659a48 25.7750 11.0936 0.0 0.0
N_2175049901_1184059 25.1730 7.2590 0.0 0.0
N_2175049902_3dfaed5 25.7630 11.6690 0.0 0.0
N_2175049903_3adb438 25.7500 11.4838 0.0 0.0
N_2175049904_1bcb5ed 25.7380 10.7884 0.0 0.0
N_2175049905_5991261 25.7250 10.8014 0.0 0.0
N_2175049906_c27e97d 25.7130 7.7739 0.0 0.0
N_2175049907_8c445e9 25.1220 10.8462 0.0 0.0
N_2175049908_9892e63 25.1090 10.8592 0.0 0.0
N_2175050401_c353dd9 25.6560 8.2102 0.0 0.0
N_2175050402_c703f96 25.6320 8.1360 0.0 0.0
N_2175050403_c1aadea 25.8410 7.9270 0.0 0.0
N_2175050404_2a2f988 25.6040 6.7443 0.0 0.0
N_2175050405_cef434a 25.8190 6.5293 0.0 0.0
N_2175050407_1b81e1e 25.8060 6.5423 0.0 0.0
N_2175050408_9066a79 25.5870 6.7613 0.0 0.0
N_2175050409_13778e4 26.6240 5.6651 0.0 0.0
N_2175050501_a6ff929 26.8360 5.7226 0.0 0.0
N_2175050502_ddfafd4 27.0630 5.3542 0.0 0.0
N_2175050503_a89c485 27.3000 4.3787 0.0 0.0
N_2175051401_e677a6a 25.7900 6.0598 0.0 0.0
N_2175051402_0784d50 25.5660 6.2838 0.0 0.0
N_2175051403_5cda202 25.7740 6.3055 0.0 0.0
N_2175051404_101b52f 25.5450 6.5345 0.0 0.0
N_2175051405_f1df2c2 25.7520 6.3650 0.0 0.0
N_2175051406_abe4972 25.5180 6.5990 0.0 0.0
N_2175051407_1d17f29 25.7360 8.2020 0.0 0.0
N_2175051408_816c586 25.4980 8.4400 0.0 0.0
N_2175052002_b84db3c 29.4500 10.9462 0.0 0.0
N_2175052003_5d1678e 29.2800 7.6338 0.0 0.0
N_2175052004_765711b 28.8470 6.0759 0.0 0.0
N_2175052401_ca8926b 25.4760 8.6172 0.0 0.0
N_2175052402_49c455b 25.7100 8.3832 0.0 0.0
N_2175052403_e050b19 25.4490 6.2906 0.0 0.0
N_2175052404_a5b102a 25.6910 6.0486 0.0 0.0
N_2175052406_add4098 25.4260 6.3263 0.0 0.0
N_2175052407_571ea9c 25.6760 6.0763 0.0 0.0
N_2175053001_ffce378 28.4700 8.1163 0.0 0.0
N_2175053002_608cfd0 28.0840 7.3480 0.0 0.0
N_2175053003_cc9fee4 27.8100 7.0100 0.0 0.0
N_2175053401_307149d 25.6570 7.4088 0.0 0.0
N_2175053402_253f22e 25.3970 7.6688 0.0 0.0
N_2175053403_fc7ac8d 25.6340 9.0248 0.0 0.0
N_2175053404_3ca4e6d 25.3680 9.2908 0.0 0.0
N_2175053405_d347713 25.6140 9.1121 0.0 0.0
N_2175053406_47a94a5 25.3420 9.3841 0.0 0.0
N_2175054001_f54686e 27.7100 5.8313 0.0 0.0
N_2175054002_abf7b89 25.5000 10.0191 0.0 0.0
N_2175054003_b3ded0e 25.4890 10.0301 0.0 0.0
N_2175054004_5b81dbc 25.4760 9.2202 0.0 0.0
N_2175054005_51a5584 25.4630 11.0187 0.0 0.0
N_2175054006_5a9b8c3 25.4520 11.0297 0.0 0.0
N_2175054401_3bde289 25.5960 9.7095 0.0 0.0
N_2175054402_9f097eb 25.3200 9.9855 0.0 0.0
N_2175054403_d6e2821 25.2940 10.3138 0.0 0.0
N_2175054407_db1f551 25.5620 10.0458 0.0 0.0
N_2175054412_ab64442 25.2660 10.9941 0.0 0.0
N_2175054413_799d305 25.5500 10.7101 0.0 0.0
N_2175054418_37d7f57 25.5410 10.7191 0.0 0.0
N_2175054420_cc7a013 25.2520 11.0081 0.0 0.0
N_2175054501_6204b61 25.5200 8.7586 0.0 0.0
N_2175054502_59ff116 25.5430 9.4768 0.0 0.0
N_2175054503_5268cf1 25.5720 10.0633 0.0 0.0
N_2175054504_58a7904 25.5910 14.5664 0.0 0.0
N_2175054601_6dacbe4 25.6580 12.3940 0.0 0.0
N_2175054602_e89206f 25.6360 13.6958 0.0 0.0
N_2175054603_87c21e5 25.6090 14.4832 0.0 0.0
N_2175054705_9df5a67 25.7000 7.0666 0.0 0.0
N_2175055001_0b24f59 25.4390 11.4090 0.0 0.0
N_2175055002_7434354 25.4260 11.8253 0.0 0.0
N_2175055003_3d6ef67 25.4130 11.8383 0.0 0.0
N_2175055004_7109728 25.4000 8.2468 0.0 0.0
N_2175055005_eb75b17 25.3880 8.2588 0.0 0.0
N_2175055006_8158f4c 25.3750 9.2439 0.0 0.0
N_2175055401_66f9b19 25.2330 13.4566 0.0 0.0
N_2175055403_945499f 24.8000 19.3816 0.0 0.0
N_2175055404_ff770f9 24.7970 15.0033 0.0 0.0
N_2175055405_3178c09 24.7950 15.0053 0.0 0.0
N_2175055406_fcfbdf9 24.7820 18.3012 0.0 0.0
N_2175055501_85a0e63 24.7690 10.6630 0.0 0.0
N_2175055502_50bd2fe 24.7610 10.2221 0.0 0.0
N_2175055503_855530e 24.7540 10.2291 0.0 0.0
N_2175055701_8535fcb 26.0000 7.3737 0.0 0.0
N_2175056001_5a19f5b 25.3620 10.3559 0.0 0.0
N_2175056002_ac28031 25.3490 10.3689 0.0 0.0
N_2175056003_31d10b5 25.3400 11.0433 0.0 0.0
N_2175056004_6604f1b 25.3370 11.0463 0.0 0.0
N_2175056005_d72127e 25.3240 6.7421 0.0 0.0
N_2175056006_edb2400 25.3110 6.7551 0.0 0.0
N_2175056501_84f2a28 24.7460 11.4372 0.0 0.0
N_2175056502_0892b71 24.7380 12.0016 0.0 0.0
N_2175056601_3bb7f5e 24.7300 15.1238 0.0 0.0
N_2175056602_95648e5 24.7040 12.2499 0.0 0.0
N_2175056603_6c5abc0 24.7200 15.8033 0.0 0.0
N_2175056604_bb00d99 24.7120 12.2419 0.0 0.0
N_2175056702_d30b2c4 24.6780 10.3936 0.0 0.0
N_2175056703_276756e 24.6940 10.4358 0.0 0.0
N_2175056704_f77d337 24.6690 10.0320 0.0 0.0
N_2175056705_16f32cc 24.6590 9.8099 0.0 0.0
N_2175056706_5c09a05 24.6570 9.8119 0.0 0.0
N_2175056802_6b8fade 24.6550 9.8139 0.0 0.0
N_2175056803_1d35822 24.6490 9.1671 0.0 0.0
N_2175056804_1f9a69c 24.6420 9.1741 0.0 0.0
N_2175056806_e1da8da 24.6350 9.4436 0.0 0.0
N_2175057001_8afca3a 25.2990 5.1330 0.0 0.0
N_2175057002_e634b11 25.2860 8.2141 0.0 0.0
N_2175057003_6fd4194 25.2740 8.2261 0.0 0.0
N_2175057004_4000c58 25.2600 9.0080 0.0 0.0
N_2175057005_ae823d7 25.2580 9.0100 0.0 0.0
N_2175057006_b1e0fd6 25.2480 6.4639 0.0 0.0
N_2175057702_9de957d 24.5960 9.2678 0.0 0.0
N_2175057801_186a472 24.6270 9.8050 0.0 0.0
N_2175057802_42ad562 24.6200 9.8120 0.0 0.0
N_2175057803_0535a5d 24.6120 9.5331 0.0 0.0
N_2175057804_dad5bb7 24.6040 9.2598 0.0 0.0
N_2175058001_63c365f 25.2350 8.3340 0.0 0.0
N_2175058002_91e40e2 25.2230 6.8238 0.0 0.0
N_2175058003_8b5b549 25.2120 6.8348 0.0 0.0
N_2175058004_5b58a21 25.1990 6.7212 0.0 0.0
N_2175058005_56f8f7c 25.1860 6.7342 0.0 0.0
N_2175058701_38d3c2a 24.5890 8.9674 0.0 0.0
N_2175058702_17677a5 24.5810 8.9754 0.0 0.0
N_2175058703_113fc1d 24.5800 9.7118 0.0 0.0
N_2175058704_c7d79dd 24.5780 9.7138 0.0 0.0
N_2175058705_e50d357 24.5730 9.1763 0.0 0.0
N_2175058706_fa82e33 24.5650 9.3457 0.0 0.0
N_2175058708_8c98a8e 24.5580 9.3527 0.0 0.0
N_2175058901_e290b18 25.6180 8.3055 0.0 0.0
N_2175058902_12d11c0 25.6380 8.2855 0.0 0.0
N_2175058903_2dbc4b7 25.5700 8.3422 0.0 0.0
N_2175059001_81c8bd6 25.1600 7.4694 0.0 0.0
N_2175059002_6309a0e 25.1470 7.4824 0.0 0.0
N_2175059003_1db34ad 25.1340 10.5063 0.0 0.0
N_2175059701_a9292b0 24.5500 9.3727 0.0 0.0
N_2175059702_e0c74a2 24.5420 9.3926 0.0 0.0
N_2175059703_e597f83 24.5340 8.8980 0.0 0.0
N_2175059704_4c3691c 24.5260 9.7867 0.0 0.0
N_2175059705_9b17945 24.5190 9.7937 0.0 0.0
N_2175059706_f764351 24.5110 10.0714 0.0 0.0
N_2175059801_420cb31 25.4300 6.4842 0.0 0.0
N_2175059901_447068c 25.5180 8.3501 0.0 0.0
N_2175059902_ce6f9d9 25.5030 9.0875 0.0 0.0
N_2175059903_4d26030 25.4880 7.8849 0.0 0.0
N_2175059904_6e9ae3b 25.4650 7.9079 0.0 0.0
N_2175059905_acf40a0 25.4500 7.9229 0.0 0.0
N_2175068001_013d591 25.7000 7.1110 0.0 0.0
N_2175068002_fdfa45e 25.6720 7.9799 0.0 0.0
N_2175068101_582c9d7 26.6360 12.4132 0.0 0.0
N_2175068102_a2569ae 26.5770 10.1896 0.0 0.0
N_2175068103_b96d924 26.5170 10.2496 0.0 0.0
N_2175068104_70afae0 26.4580 14.7595 0.0 0.0
N_2175068201_f019b25 26.3980 7.2390 0.0 0.0
N_2175068401_a94ded1 25.9220 4.3680 0.0 0.0
N_2175068402_0fc2647 25.9320 5.2987 0.0 0.0
N_2175068403_5c04b87 25.9090 4.3810 0.0 0.0
N_2175069201_5896c5f 26.3390 7.2980 0.0 0.0
N_2175069202_85aea02 26.2820 8.1410 0.0 0.0
N_2175069203_3db040e 26.2230 10.4987 0.0 0.0
N_2175069204_96cf5bb 26.1640 10.5577 0.0 0.0
N_2175069205_6da8ed3 26.0460 5.6877 0.0 0.0
N_2175069206_4b58843 26.1050 12.0850 0.0 0.0
N_2175069301_8b6ee25 25.9410 5.2897 0.0 0.0
N_2175069302_7a1f9a4 25.9570 3.7559 0.0 0.0
N_2175069303_18fccdc 25.9760 4.1264 0.0 0.0
N_2175069304_a1e385d 25.9910 5.3149 0.0 0.0
N_2175069305_4aaab73 26.0010 5.3049 0.0 0.0
N_2175069306_d1c3ac8 26.0090 6.4677 0.0 0.0
N_2175069307_747ab8b 26.0260 4.7440 0.0 0.0
N_2175069401_f1428c9 25.8920 4.6478 0.0 0.0
N_2175069501_37d2164 25.8730 5.5590 0.0 0.0
N_2175069502_4982e52 25.8600 5.3585 0.0 0.0
N_2175069503_212797f 25.8290 4.6030 0.0 0.0
N_2175069601_259bb03 25.8050 5.8192 0.0 0.0
N_2175069602_c4e977a 25.7920 5.4111 0.0 0.0
N_2175069603_96da065 25.7810 5.4221 0.0 0.0
N_2175069604_cab0d52 25.7620 4.8861 0.0 0.0
N_2175070301_9c1479a 24.9000 10.5320 0.0 0.0
N_2175070401_4d9fc13 25.1300 11.3020 0.0 0.0
N_2175070402_8dbe0be 25.0890 11.3430 0.0 0.0
N_2175070403_84204fd 24.9170 11.0603 0.0 0.0
N_2175070404_d9a38a9 25.1200 11.3120 0.0 0.0
N_2175070405_68ed85f 25.0820 11.3500 0.0 0.0
N_2175070406_1bab45b 24.9160 10.4639 0.0 0.0
N_2175070407_e8e2341 25.0460 8.9721 0.0 0.0
N_2175070408_a181526 24.9150 11.5170 0.0 0.0
N_2175070409_84c2fcd 25.0380 9.2502 0.0 0.0
N_2175070410_8f0c9a5 24.9140 11.5180 0.0 0.0
N_2175070501_f4fe85c 25.0760 8.9421 0.0 0.0
N_2175070502_c0ceb77 25.0640 9.2242 0.0 0.0
N_2175071501_8c121c1 24.9130 9.3227 0.0 0.0
N_2175071502_750157c 25.0350 9.2007 0.0 0.0
N_2175071503_d5a15da 24.9130 9.3227 0.0 0.0
N_2175071504_c1c406c 24.9120 8.5200 0.0 0.0
N_2175071505_78c1093 25.0050 8.4270 0.0 0.0
N_2175071506_a87c352 24.9890 8.4430 0.0 0.0
N_2175071507_51e3c7d 24.9970 6.8553 0.0 0.0
N_2175071508_fabf2b9 24.9110 6.9413 0.0 0.0
N_2175071509_79b494c 24.9810 6.8713 0.0 0.0
N_2175071510_7efd3c0 24.9870 6.8653 0.0 0.0
N_2175071511_3a37a05 24.9760 8.9748 0.0 0.0
N_2175071601_1daef95 24.9100 9.0408 0.0 0.0
N_2175071602_0c8f1e8 24.9590 8.3654 0.0 0.0
N_2175071603_8dc18e1 24.9630 8.3614 0.0 0.0
N_2175071604_2d47f2b 24.9100 8.4144 0.0 0.0
N_2175071605_c6a5b1f 24.9520 8.3724 0.0 0.0
N_2175071606_ca8b12d 24.9510 6.9614 0.0 0.0
N_2175071607_b6a3eed 24.9090 7.0034 0.0 0.0
N_2175071608_7ffb2e9 24.9380 6.9744 0.0 0.0
N_2175071609_593447b 24.9330 6.9794 0.0 0.0
N_2175072601_051aaa0 24.9080 7.0044 0.0 0.0
N_2175072602_1e7e833 24.9070 9.5250 0.0 0.0
N_2175072701_710e208 24.9060 8.4899 0.0 0.0
N_2175072702_37bf34c 24.9000 8.4959 0.0 0.0
N_2175072703_952eb1d 24.8830 10.0839 0.0 0.0
N_2175072704_9daec82 24.9060 10.0697 0.0 0.0
N_2175072705_8f09004 24.8660 10.1097 0.0 0.0
N_2175072706_79fbf9a 24.8830 10.0927 0.0 0.0
N_2175072707_84cec8d 24.9050 11.9149 0.0 0.0
N_2175072708_ca64e28 24.8700 11.9499 0.0 0.0
N_2175072709_266a0a7 24.8470 11.9729 0.0 0.0
N_2175072710_2e6e580 24.9040 9.0082 0.0 0.0
N_2175072801_998391b 26.0000 8.9412 0.0 0.0
N_2175072802_152819b 26.0000 7.9574 0.0 0.0
N_2175072803_33cc2e8 25.7600 8.6672 0.0 0.0
N_2175072804_3c7464c 24.8290 8.6030 0.0 0.0
N_2175072805_803fd58 24.8550 8.5770 0.0 0.0
N_2175072806_ae31b2b 25.6590 8.7682 0.0 0.0
N_2175072807_e0f5def 24.9030 8.5290 0.0 0.0
N_2175073701_580e9c8 26.0000 7.7246 0.0 0.0
N_2175073702_85bbd7f 25.9500 6.0054 0.0 0.0
N_2175073801_2ac2d4e 24.8100 9.6172 0.0 0.0
N_2175073802_d6996a1 24.8400 9.5218 0.0 0.0
N_2175073803_ddcc79a 24.8030 9.5588 0.0 0.0
N_2175073804_b4a0350 24.9030 9.4588 0.0 0.0
N_2175073805_aa7927e 24.8340 9.5278 0.0 0.0
N_2175073806_4275dcb 25.4370 7.8441 0.0 0.0
N_2175073808_04533b2 24.9020 9.4598 0.0 0.0
N_2175073809_2498253 24.8170 11.4588 0.0 0.0
N_2175073810_89d8f3d 25.3000 9.0178 0.0 0.0
N_2175073811_d470391 24.7770 9.2076 0.0 0.0
N_2175073812_8987809 25.8820 6.0734 0.0 0.0
N_2175073813_2280a90 26.9000 6.5768 0.0 0.0
N_2175073814_48391e8 27.0000 6.4768 0.0 0.0
N_2175073901_9145a17 24.7490 9.2180 0.0 0.0
N_2175073902_19ccc16 25.2000 8.7846 0.0 0.0
N_2175073903_f8e6892 24.7930 9.1740 0.0 0.0
N_2175073904_ed10976 24.7530 9.2140 0.0 0.0
N_2175073905_bf65de7 25.1000 8.8670 0.0 0.0
N_2175073906_12957fb 24.7320 9.7000 0.0 0.0
N_2175073907_ad52ae9 24.9500 9.4820 0.0 0.0
N_2175073908_23bff7a 24.7100 9.7220 0.0 0.0
N_2175073909_d0a8222 24.7640 9.6680 0.0 0.0
N_2175073910_386bb70 24.9000 9.5320 0.0 0.0
N_2175074801_973af67 25.7170 6.8142 0.0 0.0
N_2175074802_d9b7c65 25.6100 4.8220 0.0 0.0
N_2175074803_e708231 25.1930 3.6841 0.0 0.0
N_2175074804_ffe6192 25.2100 3.6671 0.0 0.0
N_2175074901_c32ef09 26.5000 7.5100 0.0 0.0
N_2175074902_89f2072 24.6920 10.3074 0.0 0.0
N_2175074903_d03494a 26.6000 7.0962 0.0 0.0
N_2175074904_ab68ada 25.5110 6.4933 0.0 0.0
N_2175074905_867c78a 25.0590 6.9453 0.0 0.0
N_2175074906_9941bcb 25.0970 6.5392 0.0 0.0
N_2175074907_db7b34f 25.1160 6.5202 0.0 0.0
N_2175074908_9bf95c1 25.1320 4.8591 0.0 0.0
N_2175075802_b3fa922 25.3000 4.9694 0.0 0.0
N_2175075803_f52f73f 26.0070 6.7283 0.0 0.0
N_2175075804_ae46829 26.0290 7.3824 0.0 0.0
N_2175075805_e0e6cfc 26.0440 6.6913 0.0 0.0
N_2175075806_0387dc8 26.5420 6.8694 0.0 0.0
N_2175075807_ea3f99e 26.0440 7.3674 0.0 0.0
N_2175075808_9d857e0 26.1100 8.0894 0.0 0.0
N_2175075809_43554d9 26.0810 11.9801 0.0 0.0
N_2175075901_dd4946c 26.6250 13.6409 0.0 0.0
N_2175075902_11fd36b 26.6860 11.0302 0.0 0.0
N_2175075903_9d85d98 26.7790 12.5373 0.0 0.0
N_2175075904_02a9432 26.9130 8.0582 0.0 0.0
N_2175076701_2f7fd7b 26.2110 7.7796 0.0 0.0
N_2175076702_246112f 26.3030 7.1700 0.0 0.0
N_2175076703_6b73ac3 26.1620 12.9943 0.0 0.0
N_2175076704_c5d7ff7 26.3660 6.3797 0.0 0.0
N_2175076705_9ca6658 26.1960 11.6377 0.0 0.0
N_2175076801_088874a 26.1150 13.0588 0.0 0.0
N_2175077701_04c3c2e 26.4380 6.4482 0.0 0.0
N_2175077702_7506f6a 26.2280 5.6639 0.0 0.0
N_2175077703_3f98362 26.5000 6.3862 0.0 0.0
N_2175077706_9ead686 26.2420 5.1900 0.0 0.0
N_2175078701_f7ed602 26.9230 4.3269 0.0 0.0
N_2175078702_ed53eeb 26.8930 4.4355 0.0 0.0
N_2175078703_d8c6355 26.8560 1.7949 0.0 0.0
N_2175079602_d10733a 26.8000 2.6415 0.0 0.0
N_2175079603_ecc501e 26.7930 2.6390 0.0 0.0
N_2175079604_0163657 26.7860 1.8180 0.0 0.0
N_2175079605_97c7e26 26.8240 2.8158 0.0 0.0
N_2175084001_0c60efb 24.5170 10.1112 0.0 0.0
N_2175084002_7a2e696 24.4040 8.0647 0.0 0.0
N_2175084003_e422d8f 24.3420 6.0900 0.0 0.0
N_2175084004_d0ca886 24.2510 7.4494 0.0 0.0
N_2175084102_abcd483 24.1380 6.2940 0.0 0.0
N_2175085501_321c250 26.9100 4.8049 0.0 0.0
N_2175085502_86192ed 26.7830 4.9319 0.0 0.0
N_2175085503_993ab07 26.6950 5.0199 0.0 0.0
N_2175085504_e985229 26.5320 4.5780 0.0 0.0
N_2175085505_c5c7f14 26.3990 4.6328 0.0 0.0
N_2175085801_415cc53 27.3900 2.8395 0.0 0.0
N_2175086001_d6cf941 27.0000 5.5296 0.0 0.0
N_2175086501_a7b3f12 26.2260 4.8058 0.0 0.0
N_2175086502_1dbe4e2 26.1040 4.3280 0.0 0.0
N_2175086801_3aa6036 27.2030 3.0111 0.0 0.0
N_2175086802_2aef967 26.9600 2.4720 0.0 0.0
N_2175087801_fa3dde1 26.6920 2.7400 0.0 0.0
N_2175087802_d57e4ad 26.5360 2.8326 0.0 0.0
N_2175091801_34faff5 26.8700 3.2605 0.0 0.0
N_2175092801_eff7b13 26.6670 3.5893 0.0 0.0
N_2175092901_56e31ad 26.4830 3.2177 0.0 0.0
N_2175093901_82b9aa9 26.2920 5.5839 0.0 0.0
N_2175103003_dffa4c2 26.1700 4.6105 0.0 0.0
N_2175104002_2b6cdc9 26.0800 4.4336 0.0 0.0
N_2175104003_f2bba88 26.0370 4.6124 0.0 0.0
N_2175105001_92548a2 25.9950 6.0040 0.0 0.0
N_2175105002_2641c3f 25.9640 4.6605 0.0 0.0
N_2175106001_f54b4c2 25.9480 6.0767 0.0 0.0
N_2175106002_012367f 25.9330 6.0926 0.0 0.0
N_2175106003_8394bf5 25.9210 6.0501 0.0 0.0
N_2175106004_50327fb 25.9050 6.0661 0.0 0.0
N_2175106005_f2293b2 25.8830 15.1064 0.0 0.0
N_2175106006_943728e 25.8610 15.1284 0.0 0.0
N_2175106401_10bd2b2 27.1000 8.2410 0.0 0.0
N_2175106402_562e8b0 27.0410 5.8420 0.0 0.0
N_2175106403_9a1d2f9 27.0290 6.4862 0.0 0.0
N_2175106501_6d18b23 26.9990 6.7238 0.0 0.0
N_2175106502_6fa4ca6 27.0100 6.7128 0.0 0.0
N_2175106601_500f48f 28.2600 7.7338 0.0 0.0
N_2175106602_b6922e7 28.2500 7.7438 0.0 0.0
N_2175106603_3842227 28.1390 7.8548 0.0 0.0
N_2175106604_42fd17e 28.0650 7.0418 0.0 0.0
N_2175106605_e952b57 27.6700 7.4368 0.0 0.0
N_2175106606_91977a8 27.4900 7.6168 0.0 0.0
N_2175107001_396c991 25.8360 19.2814 0.0 0.0
N_2175107002_7e5b470 25.8100 19.3074 0.0 0.0
N_2175107003_478546c 25.7680 9.4638 0.0 0.0
N_2175107004_478475a 25.7000 22.2275 0.0 0.0
N_2175107501_c9424f1 26.9260 4.8617 0.0 0.0
N_2175107502_b1a7af8 26.9100 4.8777 0.0 0.0
N_2175107503_f962168 26.9700 6.1267 0.0 0.0
N_2175107504_e52379d 26.9000 5.2187 0.0 0.0
N_2175107505_7848397 26.9000 6.1967 0.0 0.0
N_2175107506_f9b0bad 26.8950 5.6091 0.0 0.0
N_2175107507_085e678 26.8900 5.6141 0.0 0.0
N_2175107508_ea2a1c7 26.8700 4.8389 0.0 0.0
N_2175107601_b0586d5 27.3000 6.4212 0.0 0.0
N_2175107602_5e29e90 27.2000 6.5212 0.0 0.0
N_2175107603_264928d 27.1700 4.9177 0.0 0.0
N_2175108101_5d5174e 25.6280 5.6850 0.0 0.0
N_2175108102_cb8d59c 25.5730 6.7289 0.0 0.0
N_2175108103_174ee1b 25.5070 11.2972 0.0 0.0
N_2175108104_ca2a76e 25.4140 27.7456 0.0 0.0
N_2175108501_3bfbcaa 26.8400 4.8689 0.0 0.0
N_2175108502_930df9a 26.7900 6.0491 0.0 0.0
N_2175108503_0c757ca 26.7500 6.0891 0.0 0.0
N_2175108601_c5c0a47 26.6800 6.1591 0.0 0.0
N_2175108602_323d697 26.6430 6.1961 0.0 0.0
N_2175108603_fcf961d 26.6000 7.5245 0.0 0.0
N_2175108604_be0d2c7 26.5600 7.5764 0.0 0.0
N_2175108605_6665352 26.5200 9.7902 0.0 0.0
N_2175109101_9d23aad 25.3580 27.8016 0.0 0.0
N_2175109102_ac2ad38 25.3210 45.5323 0.0 0.0
N_2175109103_338036d 25.2620 26.0219 0.0 0.0
N_2175109601_0d211e3 26.5000 9.8102 0.0 0.0
N_2175109602_d8718c5 26.3000 11.0455 0.0 0.0
N_2175109603_3ebe86f 25.9300 7.2911 0.0 0.0
N_2175109604_6cccc77 25.9000 7.3211 0.0 0.0
N_2175109605_a378776 25.8200 6.1073 0.0 0.0
N_2175117301_d386b54 27.7990 3.7952 0.0 0.0
N_2175118201_0363b93 27.7790 3.8152 0.0 0.0
N_2175118202_ae97151 27.7280 3.8385 0.0 0.0
N_2175118203_a15a049 27.6590 4.2325 0.0 0.0
N_2175118204_f0d08b8 27.5870 4.2948 0.0 0.0
N_2175118205_ad6344b 27.5200 3.4127 0.0 0.0
N_2175118301_013ef37 27.9500 6.0734 0.0 0.0
N_2175118302_118ec9f 27.8900 3.8503 0.0 0.0
N_2175118303_e5ee36d 27.8440 3.7502 0.0 0.0
N_2175119201_cdc4177 27.4850 3.4535 0.0 0.0
N_2175119202_b591838 27.4500 3.4274 0.0 0.0
N_2175119203_b540084 27.4130 3.0190 0.0 0.0
N_2175124901_94754a9 33.6150 4.4995 0.0 0.0
N_2175124902_7175d5a 33.5540 3.8780 0.0 0.0
N_2175124903_c11c8a1 33.5210 4.2064 0.0 0.0
N_2175124904_5d0a3e3 33.5080 4.2194 0.0 0.0
N_2175124905_fbab835 33.4930 4.2344 0.0 0.0
N_2175124906_da4e040 33.4760 3.9560 0.0 0.0
N_2175124907_322ac95 33.4310 4.0010 0.0 0.0
N_2175125901_290cf26 33.3690 4.0630 0.0 0.0
N_2175125902_f8ffcf7 33.3070 4.2898 0.0 0.0
N_2175125903_f3bac1c 33.2460 4.9164 0.0 0.0
N_2175125904_3f884ff 33.1840 4.6542 0.0 0.0
N_2175130501_aac3f44 36.0800 5.8243 0.0 0.0
N_2175130601_ce7d7b5 36.8940 5.8151 0.0 0.0
N_2175130602_3d01653 36.5620 4.6730 0.0 0.0
N_2175130603_0d3ea1d 36.5000 4.7350 0.0 0.0
N_2175130604_ba136c9 36.2000 4.5264 0.0 0.0
N_2175130605_acd3666 36.1390 4.2930 0.0 0.0
N_2175130606_f2a6dbb 36.6710 5.7642 0.0 0.0
N_2175130701_3801d9b 37.6920 6.4514 0.0 0.0
N_2175130702_4f1ff33 37.2560 4.6725 0.0 0.0
N_2175130703_4069fde 37.1880 9.4318 0.0 0.0
N_2175130704_e08a078 37.0330 6.5453 0.0 0.0
N_2175130705_25c695b 37.0220 4.8878 0.0 0.0
N_2175130706_8e61755 36.9370 7.6783 0.0 0.0
N_2175130707_295c63f 36.8590 7.7563 0.0 0.0
N_2175131401_3b8bab5 35.8390 9.3385 0.0 0.0
N_2175131402_af0ecd1 35.8100 8.1227 0.0 0.0
N_2175131403_8a42a57 35.8020 8.1307 0.0 0.0
N_2175131404_d5e5921 35.7000 8.2327 0.0 0.0
N_2175131405_6ab7213 35.6440 5.6282 0.0 0.0
N_2175131501_64decf6 36.0190 5.3282 0.0 0.0
N_2175131502_e8a868a 35.9860 5.3612 0.0 0.0
N_2175131503_c88c430 35.9700 4.8137 0.0 0.0
N_2175131504_831e1d3 35.9600 4.8237 0.0 0.0
N_2175131505_0e3b3f8 35.8990 4.5330 0.0 0.0
N_2175131506_0e03dee 36.1390 7.1362 0.0 0.0
N_2175131507_fc7244f 36.1030 7.3067 0.0 0.0
N_2175131508_179f014 36.0990 7.3107 0.0 0.0
N_2175131509_d6a7410 36.0880 10.0233 0.0 0.0
N_2175131510_40b2dc6 36.0650 11.1628 0.0 0.0
N_2175131601_c33e265 36.4850 5.4437 0.0 0.0
N_2175131602_813ae49 36.3860 7.4092 0.0 0.0
N_2175131603_93b4caf 36.2880 7.4735 0.0 0.0
N_2175132101_c260074 35.0650 4.4549 0.0 0.0
N_2175132102_981edbe 35.0870 4.3287 0.0 0.0
N_2175132103_0c3a503 34.9760 4.1058 0.0 0.0
N_2175132104_2202694 34.9380 4.1438 0.0 0.0
N_2175132105_8e57304 34.8370 3.2972 0.0 0.0
N_2175132201_a92bee4 35.3090 4.6225 0.0 0.0
N_2175132202_62100c4 35.2530 5.3867 0.0 0.0
N_2175132203_c294e2e 35.1430 4.2727 0.0 0.0
N_2175132301_e39fbea 35.5330 4.8990 0.0 0.0
N_2175132302_33fcf06 35.5210 5.7524 0.0 0.0
N_2175132303_217daae 35.4760 5.7974 0.0 0.0
N_2175132304_74872aa 35.4570 4.8225 0.0 0.0
N_2175132305_c405010 35.4210 4.8585 0.0 0.0
N_2175132306_5b745e4 35.7790 7.2875 0.0 0.0
N_2175132307_eb6dec5 35.3650 4.5785 0.0 0.0
N_2175132308_fa7fe92 35.6720 6.0913 0.0 0.0
N_2175132309_ad57394 35.5640 5.3942 0.0 0.0
N_2175132310_9d6a9a7 35.4560 6.0117 0.0 0.0
N_2175132401_6bd9094 35.5880 4.8440 0.0 0.0
N_2175132402_5fc8784 36.0010 8.0669 0.0 0.0
N_2175132403_58ca80d 35.9830 8.9206 0.0 0.0
N_2175132404_01d87c1 35.8860 5.7716 0.0 0.0
N_2175133101_720d41c 34.8080 3.3262 0.0 0.0
N_2175133102_66bc9ae 34.7210 4.2789 0.0 0.0
N_2175133103_4ee3d75 34.6790 4.4090 0.0 0.0
N_2175133104_ed0d551 34.7760 3.8807 0.0 0.0
N_2175133105_c52e2c1 34.6240 4.8140 0.0 0.0
N_2175133106_8489fa0 34.6060 4.8140 0.0 0.0
N_2175133107_1d669c5 34.5730 3.6752 0.0 0.0
N_2175133108_98a14ad 34.4670 4.9650 0.0 0.0
N_2175133201_62e38d2 35.1700 4.6016 0.0 0.0
N_2175133202_3a1b80e 35.1880 4.5836 0.0 0.0
N_2175133203_2e11d46 35.3490 6.0830 0.0 0.0
N_2175133204_780e6a4 35.2410 6.1910 0.0 0.0
N_2175133205_19fdc59 35.1260 4.8517 0.0 0.0
N_2175133206_58753cf 35.1590 5.3421 0.0 0.0
N_2175133207_44a1840 35.1880 5.3131 0.0 0.0
N_2175133208_0ebe8b9 35.0360 4.9537 0.0 0.0
N_2175134001_de8fa66 34.1410 5.2910 0.0 0.0
N_2175134002_e403116 34.0350 5.7818 0.0 0.0
N_2175134003_be96354 33.8000 6.0168 0.0 0.0
N_2175134004_90cf5a7 33.7380 6.4132 0.0 0.0
N_2175134005_747272e 33.6770 6.0977 0.0 0.0
N_2175134901_dd260ed 34.5700 19.2321 0.0 0.0
N_2175134902_027b346 34.5440 19.2581 0.0 0.0
N_2175134903_e6fd5f6 34.5110 20.2492 0.0 0.0
N_2175134904_b1d46a1 34.5010 18.6097 0.0 0.0
N_2175134905_0e9c7bf 34.4970 17.3041 0.0 0.0
N_2175135101_65982f3 34.6000 2.5069 0.0 0.0
N_2175135901_51a19e5 34.4770 17.3241 0.0 0.0
N_2175135902_49d19f8 34.4450 16.9870 0.0 0.0
N_2175135903_b5ea962 34.4270 17.0050 0.0 0.0
N_2175135904_c1e2a32 34.4130 15.2900 0.0 0.0
N_2175135905_20674cc 34.3790 14.6626 0.0 0.0
N_2175136001_f4c7984 33.1230 5.0523 0.0 0.0
N_2175136002_1e1eaa6 33.4680 5.6962 0.0 0.0
N_2175136003_f062fd4 33.0820 5.0933 0.0 0.0
N_2175136004_656aa65 33.0000 4.9443 0.0 0.0
N_2175136005_2e364da 32.9880 4.9563 0.0 0.0
N_2175136101_f2df2f5 34.1000 3.4197 0.0 0.0
N_2175136901_4c9f070 34.3130 18.2742 0.0 0.0
N_2175136902_dd51962 34.2790 18.5874 0.0 0.0
N_2175137001_667366c 32.9660 5.8933 0.0 0.0
N_2175137002_905d582 32.9340 4.4329 0.0 0.0
N_2175137003_54ebb90 32.9020 5.3212 0.0 0.0
N_2175137004_583c626 32.8760 5.4652 0.0 0.0
N_2175137005_56eb035 32.8680 5.4732 0.0 0.0
N_2175137801_332309d 33.9000 15.6423 0.0 0.0
N_2175137802_052a2e3 33.8880 15.6543 0.0 0.0
N_2175137803_b6271cd 33.8680 15.6743 0.0 0.0
N_2175137804_d32977e 33.7130 6.2518 0.0 0.0
N_2175137901_92d3243 34.2460 17.4272 0.0 0.0
N_2175137902_b7fd78d 34.2150 15.3273 0.0 0.0
N_2175137903_7a829e6 34.2330 17.4402 0.0 0.0
N_2175137904_d329172 33.8150 3.6170 0.0 0.0
N_2175137905_c82c110 33.7910 3.6410 0.0 0.0
N_2175137906_8cfa3c4 33.7640 3.8918 0.0 0.0
N_2175138001_7e7a6c5 32.8390 5.5930 0.0 0.0
N_2175138002_e0271b1 32.8080 4.9551 0.0 0.0
N_2175138003_4a1fb45 32.7760 3.9998 0.0 0.0
N_2175138004_fbee0b3 32.7450 6.1347 0.0 0.0
N_2175138501_43ac856 33.7850 8.1090 0.0 0.0
N_2175138502_5ac50c5 33.7480 8.1460 0.0 0.0
N_2175138503_b14ed7b 33.6190 6.7314 0.0 0.0
N_2175138504_2e869c6 33.5340 6.5450 0.0 0.0
N_2175138801_44483dd 33.6600 6.6377 0.0 0.0
N_2175138802_f334088 33.5920 7.9445 0.0 0.0
N_2175138803_8a77581 33.5610 7.9755 0.0 0.0
N_2175139001_835dd75 32.7130 7.1986 0.0 0.0
N_2175139101_ba72e5d 32.6810 6.4158 0.0 0.0
N_2175139102_3a0196e 32.6490 5.7830 0.0 0.0
N_2175139103_6294386 32.6170 5.0578 0.0 0.0
N_2175139501_0eef79b 33.4490 5.9652 0.0 0.0
N_2175139502_ed97c13 33.3640 5.7698 0.0 0.0
N_2175139503_477b5b7 33.2750 9.7660 0.0 0.0
N_2175139801_e6610d3 33.1610 10.7239 0.0 0.0
N_2175139802_a3cfc7a 32.9980 9.1760 0.0 0.0
N_2175139803_9a4403b 32.8760 8.2631 0.0 0.0
N_2175139901_ed9aead 33.4960 7.2860 0.0 0.0
N_2175139902_e0a6657 33.4130 7.9876 0.0 0.0
N_2175139903_91ea8d0 33.3260 8.0746 0.0 0.0
N_2175139904_8bdeafa 33.2310 11.1639 0.0 0.0
N_2175140301_05bf33c 41.0000 2.5151 0.0 0.0
N_2175140302_2844647 40.6000 2.2900 0.0 0.0
N_2175140303_add17ee 40.2000 2.3276 0.0 0.0
N_2175140304_a5b2cad 39.9490 2.5918 0.0 0.0
N_2175141201_dd81376 38.9000 14.3649 0.0 0.0
N_2175141301_3575cac 39.4000 17.0320 0.0 0.0
N_2175142201_6a95c9c 38.6000 9.2692 0.0 0.0
N_2175142202_a8d4173 38.4000 9.9000 0.0 0.0
N_2175142203_b70f26f 38.2000 11.1650 0.0 0.0
N_2175142204_2c64cdf 38.0850 12.9210 0.0 0.0
N_2175143001_29c7f5a 36.3430 15.5815 0.0 0.0
N_2175143002_001d14f 36.3290 15.5955 0.0 0.0
N_2175143003_d1aff91 36.3800 18.6413 0.0 0.0
N_2175143004_7306331 36.2890 15.6355 0.0 0.0
N_2175143005_0d09e58 36.4700 15.1638 0.0 0.0
N_2175143006_143711a 36.1990 16.5031 0.0 0.0
N_2175143101_2129f00 36.5600 12.0162 0.0 0.0
N_2175143102_62960e3 36.5760 12.0002 0.0 0.0
N_2175143103_2e9de1f 36.6420 11.4670 0.0 0.0
N_2175143104_b2e2e4d 36.8100 13.8366 0.0 0.0
N_2175143105_f399b4e 36.7330 11.3760 0.0 0.0
N_2175143106_4f4c3fa 36.7700 13.8766 0.0 0.0
N_2175143201_92dbf4c 37.8050 16.1321 0.0 0.0
N_2175143202_c929593 37.0000 18.8936 0.0 0.0
N_2175143203_5c3e225 36.9780 18.9156 0.0 0.0
N_2175143204_96e61ba 36.9550 18.9386 0.0 0.0
N_2175143205_aab1beb 36.9120 16.6980 0.0 0.0
N_2175143206_5b9ce66 36.8540 18.0382 0.0 0.0
N_2175143801_1e49cca 40.6390 5.9152 0.0 0.0
N_2175143901_b7f5923 40.7260 9.4987 0.0 0.0
N_2175143902_49ab38d 40.8210 9.4037 0.0 0.0
N_2175143903_8c0982c 40.9450 8.5499 0.0 0.0
N_2175143904_2263fc3 41.0530 13.0089 0.0 0.0
N_2175144001_63d5191 36.1080 15.3349 0.0 0.0
N_2175144002_fb74daf 36.0760 15.3669 0.0 0.0
N_2175144801_86c8b4b 40.4020 10.3098 0.0 0.0
N_2175144802_8115aa8 40.2770 13.0363 0.0 0.0
N_2175144803_a60daeb 40.1280 8.3359 0.0 0.0
N_2175144901_871cb2f 41.1100 11.9732 0.0 0.0
N_2175144902_86e7ed0 40.4740 6.8735 0.0 0.0
N_2175145801_cca7abe 39.8970 17.7810 0.0 0.0
N_2175145802_212b3e0 39.7140 7.7595 0.0 0.0
N_2175145803_4d37ea3 39.6230 7.3401 0.0 0.0
N_2175145804_6a707fc 39.4860 7.8694 0.0 0.0
N_2175146701_d3d0b97 39.0040 6.3687 0.0 0.0
N_2175146801_95fbf60 39.3160 9.9518 0.0 0.0
N_2175146802_0dfc848 39.1400 11.4931 0.0 0.0
N_2175147801_e3e15d2 38.8420 3.9637 0.0 0.0
N_2175147802_4cbaaa3 38.6660 6.9929 0.0 0.0
N_2175147803_38fb011 38.5190 5.6182 0.0 0.0
N_2175147804_e29438f 38.5510 5.5862 0.0 0.0
N_2175147805_7b0240b 38.5060 5.6312 0.0 0.0
N_2175147806_8ee838f 38.4810 4.4564 0.0 0.0
N_2175148001_3b5f8f9 33.8560 6.1251 0.0 0.0
N_2175148002_24e9c3a 33.6880 7.2560 0.0 0.0
N_2175148101_e6e4deb 33.9470 5.0452 0.0 0.0
N_2175148102_d45636a 34.0040 7.0000 0.0 0.0
N_2175148103_a407f05 34.0790 6.9499 0.0 0.0
N_2175148401_c6102b5 35.4350 5.9970 0.0 0.0
N_2175148402_998da6d 35.4800 6.2475 0.0 0.0
N_2175148403_c8a12ef 35.3650 6.0670 0.0 0.0
N_2175148501_509831a 35.5730 6.1545 0.0 0.0
N_2175148502_39c9d96 35.7910 15.2217 0.0 0.0
N_2175148503_7540e12 35.7300 15.2827 0.0 0.0
N_2175148504_0fb457c 36.0260 10.0280 0.0 0.0
N_2175148601_cb5e1dc 36.1970 7.4598 0.0 0.0
N_2175148701_04f667e 37.9040 12.8118 0.0 0.0
N_2175148702_c06d9cf 38.0290 6.8351 0.0 0.0
N_2175148703_24a3e20 38.0930 6.9459 0.0 0.0
N_2175148704_29b4a80 37.7510 13.2275 0.0 0.0
N_2175148801_a1a5e47 38.4550 6.1425 0.0 0.0
N_2175148802_8357131 38.4330 6.6004 0.0 0.0
N_2175148803_632f217 38.4140 5.4306 0.0 0.0
N_2175148804_7e4a042 39.3450 6.9111 0.0 0.0
N_2175148805_d54c812 39.1380 7.1181 0.0 0.0
N_2175148806_9cc56d4 38.3860 5.4169 0.0 0.0
N_2175148807_87930c2 38.3560 6.6829 0.0 0.0
N_2175148808_683ade9 38.9540 7.5241 0.0 0.0
N_2175148901_7ef597e 39.6380 12.9536 0.0 0.0
N_2175148902_7be9e86 40.0190 17.2005 0.0 0.0
N_2175148903_487d20b 40.4110 16.4969 0.0 0.0
N_2175149001_f85cc36 33.6090 7.3350 0.0 0.0
N_2175149101_a607f64 34.1700 9.5126 0.0 0.0
N_2175149102_5ed199a 34.2380 7.1168 0.0 0.0
N_2175149201_540983b 34.2970 7.0578 0.0 0.0
N_2175149202_14092c6 34.3610 9.0473 0.0 0.0
N_2175149203_4c5ab12 34.4390 7.1525 0.0 0.0
N_2175149204_16d9ab1 34.5220 7.0695 0.0 0.0
N_2175149205_76373f0 34.6450 5.3778 0.0 0.0
N_2175149206_b045082 34.5690 5.4538 0.0 0.0
N_2175149207_172f2a5 34.5980 5.4248 0.0 0.0
N_2175149301_735b8c0 34.6850 5.3378 0.0 0.0
N_2175149302_808d29b 34.7770 5.8492 0.0 0.0
N_2175149303_b58487b 34.8600 18.5720 0.0 0.0
N_2175149304_5b7005f 34.8670 11.0478 0.0 0.0
N_2175149401_e221e8e 35.2630 9.8406 0.0 0.0
N_2175149402_c79d50c 35.1550 8.3304 0.0 0.0
N_2175149403_94e03ae 34.8890 16.7746 0.0 0.0
N_2175149404_2235313 34.9220 17.4573 0.0 0.0
N_2175149405_bb307fe 34.9390 14.6003 0.0 0.0
N_2175149406_6a0e5ce 34.9510 14.5883 0.0 0.0
N_2175149407_98d3a82 34.9600 14.5793 0.0 0.0
N_2175149408_203641a 36.7000 22.2690 0.0 0.0
N_2175149501_cffd414 36.6950 24.7409 0.0 0.0
N_2175149601_421ae79 36.3770 7.2798 0.0 0.0
N_2175149602_284b9fe 36.7150 13.3263 0.0 0.0
N_2175149603_fdd96d7 36.9490 26.7935 0.0 0.0
N_2175149701_1730e8f 37.4910 8.9379 0.0 0.0
N_2175149702_ecd24ba 37.2410 8.4315 0.0 0.0
N_2175149801_420377f 38.2560 6.7829 0.0 0.0
N_2175149802_600b65e 38.3860 5.4169 0.0 0.0
N_2175149803_77d7b6d 38.7010 5.9802 0.0 0.0
N_2175152301_1ac9081 51.0000 9.6303 0.0 0.0
N_2175152302_4a86727 50.5060 19.1285 0.0 0.0
N_2175152303_aa49d53 49.9080 26.2524 0.0 0.0
N_2175153101_16aa8f5 42.7200 12.3235 0.0 0.0
N_2175153102_cc0e9b1 43.0430 14.1078 0.0 0.0
N_2175153103_773ebd3 43.3330 10.7058 0.0 0.0
N_2175153201_8b98d40 43.6200 9.8120 0.0 0.0
N_2175153202_5ee4ba4 44.2920 12.4444 0.0 0.0
N_2175153301_2d72666 49.4720 24.3731 0.0 0.0
N_2175153302_ef9d9a7 48.8940 24.8471 0.0 0.0
N_2175153303_8bf7455 48.2300 13.1457 0.0 0.0
N_2175153304_ee1af97 47.5590 13.8167 0.0 0.0
N_2175154001_e081a83 41.2230 13.9732 0.0 0.0
N_2175154002_47418f5 41.3590 13.8372 0.0 0.0
N_2175154003_be821be 41.3810 13.2971 0.0 0.0
N_2175154004_b4665d9 41.4400 10.1489 0.0 0.0
N_2175154005_09e6958 41.5600 10.0289 0.0 0.0
N_2175154006_04b37c8 41.8470 11.0736 0.0 0.0
N_2175154101_9ab93f3 42.4480 13.5456 0.0 0.0
N_2175154102_e039d6c 42.1750 17.4450 0.0 0.0
N_2175154201_6504487 44.9530 9.7191 0.0 0.0
N_2175154301_b2fedd0 45.6150 6.2617 0.0 0.0
N_2175154302_dce98de 46.2810 4.6456 0.0 0.0
N_2175154303_d34c8f7 46.9510 14.2444 0.0 0.0
N_2175158001_86f76ce 41.1090 8.6940 0.0 0.0
N_2175158002_821a124 40.9000 9.4660 0.0 0.0
N_2175158003_d1e344e 41.2370 8.5660 0.0 0.0
N_2175158004_28fc47b 41.4260 11.8126 0.0 0.0
N_2175158005_95f49da 40.4830 8.8301 0.0 0.0
N_2175158006_5549e24 40.6950 8.6181 0.0 0.0
N_2175158101_52f8dcb 42.5270 12.1574 0.0 0.0
N_2175158102_83f9582 42.1010 5.4055 0.0 0.0
N_2175158201_4b45e80 44.0000 25.2436 0.0 0.0
N_2175158202_4bd76d9 43.7330 10.1514 0.0 0.0
N_2175158203_d48bd21 43.3180 5.4278 0.0 0.0
N_2176040901_c0caa25 25.0960 10.8722 0.0 0.0
N_2176040902_ba468d3 25.0830 9.3490 0.0 0.0
N_2176040903_8947814 25.0700 9.3620 0.0 0.0
N_2176040904_99f0ac1 25.0570 9.3750 0.0 0.0
N_2176040905_334c108 25.0440 9.5153 0.0 0.0
N_2176040906_c6aad71 25.0350 9.5243 0.0 0.0
N_2176040907_16ea839 25.0320 9.5273 0.0 0.0
N_2176041801_dc6d7f2 25.0060 10.2487 0.0 0.0
N_2176041802_09282f0 24.9940 10.1611 0.0 0.0
N_2176041803_334fbb2 24.9800 9.7462 0.0 0.0
N_2176041804_c6860a4 24.9690 6.5856 0.0 0.0
N_2176041805_c4580cd 24.9520 5.4226 0.0 0.0
N_2176041901_00e67c4 25.0190 10.1262 0.0 0.0
N_2176042801_e8a8367 24.9400 5.4346 0.0 0.0
N_2176042802_a7fc8de 24.9290 4.9353 0.0 0.0
N_2176042803_e9fc880 24.9150 4.4835 0.0 0.0
N_2176042804_08e3830 24.9080 4.4905 0.0 0.0
N_2176042805_7b95b92 24.8990 4.4995 0.0 0.0
N_2176042806_ae7d7ba 24.8860 3.9226 0.0 0.0
N_2176043801_eb6b2df 24.8740 3.9240 0.0 0.0
N_2176043802_ba8d448 24.8600 3.9380 0.0 0.0
N_2176043803_d61bfa4 24.8550 3.9430 0.0 0.0
N_2176043804_797acb8 24.8500 3.9480 0.0 0.0
N_2176043805_7e63bc1 24.8320 3.9660 0.0 0.0
N_2176043806_25d0164 24.8440 3.9660 0.0 0.0
N_2176044801_733c7e7 24.8550 3.9540 0.0 0.0
N_2176044802_27d28ee 24.7870 4.0110 0.0 0.0
N_2176044803_4ed2583 24.7640 4.5958 0.0 0.0
N_2176045801_8e99dba 24.7510 4.7771 0.0 0.0
N_2176045802_4ee1ceb 24.7000 4.3470 0.0 0.0
N_2176045803_1e8de10 23.1030 4.7470 0.0 0.0
N_2176045901_61ec37d 23.1620 4.6970 0.0 0.0
N_2176046501_8151f30 23.0000 6.4320 0.0 0.0
N_2176046601_9cbe2a2 23.0530 6.3790 0.0 0.0
N_2176050701_88e71af 24.5050 9.5554 0.0 0.0
N_2176050702_15fb2fe 24.5030 9.5574 0.0 0.0
N_2176050703_2bf44bc 24.5020 9.5584 0.0 0.0
N_2176050704_576ec4e 24.4950 9.5654 0.0 0.0
N_2176050705_c8c2aa1 25.3000 8.1320 0.0 0.0
N_2176050706_322b718 25.2860 8.1460 0.0 0.0
N_2176050707_09aac86 25.2760 8.6056 0.0 0.0
N_2176050708_80b672c 24.4880 9.5055 0.0 0.0
N_2176050709_5daa1e6 25.2540 5.3655 0.0 0.0
N_2176050711_5fc1931 25.2350 5.3469 0.0 0.0
N_2176050712_b3c3844 24.4790 6.8476 0.0 0.0
N_2176050713_17d5d0d 24.4710 6.8556 0.0 0.0
N_2176050801_cbc067a 25.4010 6.5132 0.0 0.0
N_2176050802_88683f1 25.3660 6.3214 0.0 0.0
N_2176050803_cbd5585 25.3480 7.4526 0.0 0.0
N_2176050804_3adf0f1 25.3340 7.0415 0.0 0.0
N_2176050805_e7df726 25.3150 8.1170 0.0 0.0
N_2176051701_5a8d984 24.4640 6.7709 0.0 0.0
N_2176051702_1fe7367 24.4560 6.3676 0.0 0.0
N_2176051703_5b57a22 24.4480 6.3756 0.0 0.0
N_2176051704_915d8fa 24.4400 6.3934 0.0 0.0
N_2176051705_729aeaa 24.4320 6.6323 0.0 0.0
N_2176051706_b00b055 24.4220 6.3888 0.0 0.0
N_2176051707_914cb8c 24.4150 5.4069 0.0 0.0
N_2176052701_599a54c 24.4070 5.4149 0.0 0.0
N_2176052702_89a7c4a 24.3790 4.9209 0.0 0.0
N_2176052703_35b5b4f 24.3580 4.9419 0.0 0.0
N_2176052704_33417ab 24.3360 4.0960 0.0 0.0
N_2176052705_234620a 24.3150 4.5977 0.0 0.0
N_2176052801_2cd1a22 24.4000 5.0320 0.0 0.0
N_2176052802_6b3f405 24.8420 4.5900 0.0 0.0
N_2176052803_be51ef9 24.8870 4.5450 0.0 0.0
N_2176052804_dcaf99b 24.9160 4.5160 0.0 0.0
N_2176052901_6f69f3b 24.9440 4.5823 0.0 0.0
N_2176052902_68962ae 24.9730 4.0667 0.0 0.0
N_2176052903_92d595a 25.0010 4.1171 0.0 0.0
N_2176052904_2542d0f 25.0300 4.0881 0.0 0.0
N_2176052905_619378d 25.0590 4.9740 0.0 0.0
N_2176053701_628f18e 24.2940 4.9116 0.0 0.0
N_2176053702_a693891 24.2730 5.1590 0.0 0.0
N_2176053703_3d6740d 24.2510 5.1810 0.0 0.0
N_2176053704_9c6ba7e 24.2300 5.2020 0.0 0.0
N_2176053705_7120cd7 24.2090 5.2230 0.0 0.0
N_2176054701_c282a68 24.1880 5.2440 0.0 0.0
N_2176054702_70b0f95 24.1660 5.2660 0.0 0.0
N_2176054703_eaa84f4 24.1450 6.1837 0.0 0.0
N_2176054704_275f91c 24.1240 5.4677 0.0 0.0
N_2176054705_44c869f 24.1030 5.3290 0.0 0.0
N_2176054706_c1125f6 24.0820 5.3500 0.0 0.0
N_2176055701_8566e1e 24.0610 5.3710 0.0 0.0
N_2176055702_63155e7 24.0400 5.3920 0.0 0.0
N_2176055703_ee94fc1 24.0190 5.4130 0.0 0.0
N_2176055704_e6cdf64 23.9970 5.4350 0.0 0.0
N_2176055705_13309ec 23.9760 5.6685 0.0 0.0
N_2176056101_5c70d12 23.2540 4.6380 0.0 0.0
N_2176056701_5b3fef4 23.9550 5.8154 0.0 0.0
N_2176056702_0ac10b7 23.9330 5.8374 0.0 0.0
N_2176056703_30869b9 23.9120 5.8972 0.0 0.0
N_2176056704_270457a 23.9000 5.9092 0.0 0.0
N_2176056705_1aa4407 25.2430 4.9893 0.0 0.0
N_2176056706_29b6d0a 23.8910 5.9182 0.0 0.0
N_2176056707_a30e28a 25.4630 6.4328 0.0 0.0
N_2176056708_c795c3c 25.6000 6.5231 0.0 0.0
N_2176056709_1b9b829 23.8590 7.5508 0.0 0.0
N_2176056710_a0463d9 25.6110 6.5121 0.0 0.0
N_2176057401_13e01a7 23.3400 7.0381 0.0 0.0
N_2176057501_9bb8938 24.5000 3.7549 0.0 0.0
N_2176057502_ba1adb2 23.4050 4.8499 0.0 0.0
N_2176057601_9756338 23.8450 8.0929 0.0 0.0
N_2176057602_ded4d9a 23.8270 8.1109 0.0 0.0
N_2176057603_13d9aac 23.8000 4.1761 0.0 0.0
N_2176057604_342ed99 23.4400 4.3950 0.0 0.0
N_2176057801_8a87625 25.6200 6.0099 0.0 0.0
N_2176057802_db5c71a 25.6280 5.8040 0.0 0.0
N_2176057803_b234e0f 25.6370 5.7950 0.0 0.0
N_2176057804_d2decd7 25.6450 6.2373 0.0 0.0
N_2176057805_f77f922 25.6540 6.2283 0.0 0.0
N_2176057806_79f8e99 25.6620 6.3136 0.0 0.0
N_2176057901_fe83be3 25.6640 6.7680 0.0 0.0
N_2176057902_867a776 25.6660 6.7660 0.0 0.0
N_2176057903_e2acba5 25.6680 5.9935 0.0 0.0
N_2176057904_e3712a9 25.6700 5.9915 0.0 0.0
N_2176058701_b195382 23.4900 7.0691 0.0 0.0
N_2176058801_8ad6323 23.5000 7.7938 0.0 0.0
N_2176058901_ac1cfd1 25.6720 5.9460 0.0 0.0
N_2176058902_d68d3ae 25.6780 5.9400 0.0 0.0
N_2176059901_948bddd 23.5520 7.5644 0.0 0.0
N_2176060201_8339ee1 26.0460 6.6073 0.0 0.0
N_2176060202_e70f7ad 26.0720 4.3649 0.0 0.0
N_2176060203_0888963 25.9870 6.6663 0.0 0.0
N_2176060204_5c2f9f7 25.9160 4.1319 0.0 0.0
N_2176060205_24636c6 26.0860 3.7190 0.0 0.0
N_2176060206_025056d 25.8800 3.9250 0.0 0.0
N_2176060207_9f43a04 25.8560 4.4796 0.0 0.0
N_2176060208_f167ed8 25.8220 4.5136 0.0 0.0
N_2176060209_f5ec416 25.8070 4.5286 0.0 0.0
N_2176060210_a454132 25.7890 4.5466 0.0 0.0
N_2176060301_8f9bc73 25.8300 5.2733 0.0 0.0
N_2176060302_f559ba0 25.8590 4.2747 0.0 0.0
N_2176060401_f2ea2c8 25.8010 4.9264 0.0 0.0
N_2176060501_3d97b91 25.7590 3.1973 0.0 0.0
N_2176060502_0cd1994 25.7750 3.3838 0.0 0.0
N_2176060601_59f9f38 25.7480 4.9120 0.0 0.0
N_2176060602_169d1f0 25.7370 5.8035 0.0 0.0
N_2176060603_fea2b4d 25.7310 5.9299 0.0 0.0
N_2176060604_5aa06f5 25.7450 4.6870 0.0 0.0
N_2176060605_f564917 25.7130 5.1202 0.0 0.0
N_2176060803_00ff0b7 26.2000 10.9925 0.0 0.0
N_2176061201_3d99867 25.7300 4.7020 0.0 0.0
N_2176061202_4ed9b2e 25.6700 4.4108 0.0 0.0
N_2176061203_46daa6d 25.6130 4.4678 0.0 0.0
N_2176061204_f40b8cb 25.5550 4.4451 0.0 0.0
N_2176061205_73c6565 25.4950 4.4932 0.0 0.0
N_2176061601_23ca14e 25.6820 4.4622 0.0 0.0
N_2176062001_0eff5d5 25.0870 4.8790 0.0 0.0
N_2176062002_1083cb3 25.1150 4.8510 0.0 0.0
N_2176062003_f471446 25.1440 3.8284 0.0 0.0
N_2176062004_8f37a70 25.1720 3.7992 0.0 0.0
N_2176062005_e77389b 25.2010 3.7702 0.0 0.0
N_2176062101_871b13a 25.2300 5.2023 0.0 0.0
N_2176062102_bb77733 25.2580 5.6850 0.0 0.0
N_2176062103_68e79be 25.2870 5.6560 0.0 0.0
N_2176062104_03099fb 25.3160 5.1160 0.0 0.0
N_2176062105_9f4ca85 25.3440 5.0880 0.0 0.0
N_2176062201_0980e00 25.4370 4.5512 0.0 0.0
N_2176062202_3d9f7a6 25.3730 4.6032 0.0 0.0
N_2176062203_a15d99d 25.4340 4.4316 0.0 0.0
N_2176062204_b6376b7 25.4060 4.0260 0.0 0.0
N_2176062301_dbb1546 25.4930 3.9390 0.0 0.0
N_2176062302_a2814f1 25.4650 3.9670 0.0 0.0
N_2176062401_c82ab85 25.5710 3.8610 0.0 0.0
N_2176062402_393a305 25.5440 3.8880 0.0 0.0
N_2176062403_e1402c2 25.5180 3.9140 0.0 0.0
N_2176062501_1348094 25.6270 3.7057 0.0 0.0
N_2176062502_70f6b82 25.6020 3.8300 0.0 0.0
N_2176062601_b2b119f 25.6650 4.1660 0.0 0.0
N_2176062602_e740af5 25.6880 4.4836 0.0 0.0
N_2176062701_fa072a5 25.7230 4.3852 0.0 0.0
N_2176062702_c4f6951 25.7520 3.8020 0.0 0.0
N_2176062703_7122c9a 25.7650 3.7890 0.0 0.0
N_2176062704_9741199 25.7780 3.6540 0.0 0.0
N_2176063701_a1618b9 25.7930 3.6390 0.0 0.0
N_2176063702_3be2fc7 25.8060 3.8739 0.0 0.0
N_2176063703_1be4373 25.8320 5.0630 0.0 0.0
N_2176063704_775cddb 25.8500 5.2140 0.0 0.0
N_2176064701_afda901 25.0000 6.7728 0.0 0.0
N_2176064702_a1a9999 24.9250 6.8478 0.0 0.0
N_2176064901_47c9ed8 25.4000 6.1705 0.0 0.0
N_2176065701_c1965df 24.8560 6.8531 0.0 0.0
N_2176065702_b79695c 24.8180 6.8911 0.0 0.0
N_2176065703_b5535ba 24.7720 6.0247 0.0 0.0
N_2176065801_d107ce8 24.7090 6.0877 0.0 0.0
N_2176065802_13e3e72 24.6380 6.1706 0.0 0.0
N_2176065803_6629340 24.5800 6.2286 0.0 0.0
N_2176065804_ab9d2de 24.5120 6.9200 0.0 0.0
N_2176066801_a9f0cee 24.4540 6.9780 0.0 0.0
N_2176066802_84c7b2e 24.4030 6.6703 0.0 0.0
N_2176066803_4b7e9a2 24.3450 6.7283 0.0 0.0
N_2176066804_fb178b2 24.2900 5.5434 0.0 0.0
N_2176066805_6157baf 24.2370 7.1728 0.0 0.0
N_2176066806_595e419 24.1710 7.2388 0.0 0.0
N_2176067801_ceca137 24.1030 7.7432 0.0 0.0
N_2176067802_80a07c6 24.0910 7.7552 0.0 0.0
N_2176067803_0f7a9cf 24.0740 7.0993 0.0 0.0
N_2176067804_9f48877 24.0590 7.4794 0.0 0.0
N_2176067805_575daaf 24.0470 6.6660 0.0 0.0
N_2176067806_81ee606 24.0270 6.6860 0.0 0.0
N_2176068001_12ef030 25.6960 4.9757 0.0 0.0
N_2176068002_05df1e3 25.7460 4.6860 0.0 0.0
N_2176068003_4977a66 26.2050 4.2270 0.0 0.0
N_2176068004_d9ea75b 26.4010 4.1690 0.0 0.0
N_2176068005_f02bc71 26.6810 4.5413 0.0 0.0
N_2176068801_36150ca 23.9940 4.9357 0.0 0.0
N_2176068802_fd96972 23.9730 4.9567 0.0 0.0
N_2176068803_6e640bb 23.9530 5.0161 0.0 0.0
N_2176068804_82bd3e4 23.9360 4.4240 0.0 0.0
N_2176069601_b77b053 23.7940 5.1659 0.0 0.0
N_2176069801_ac17bbe 23.9180 4.4240 0.0 0.0
N_2176069802_afd7274 23.9000 4.4020 0.0 0.0
N_2176069803_fb5d07d 23.8620 3.9490 0.0 0.0
N_2176069804_b870dab 23.8510 4.4000 0.0 0.0
N_2176069901_8ad8c27 24.6380 6.7940 0.0 0.0
N_2176070701_7698600 26.7800 2.4910 0.0 0.0
N_2176070702_2c768db 26.7720 2.6600 0.0 0.0
N_2176070703_7ed92a9 26.7700 2.6620 0.0 0.0
N_2176070706_439516e 26.7660 2.6456 0.0 0.0
N_2176071701_9f759a2 26.7590 3.5267 0.0 0.0
N_2176071702_59a7195 26.7520 3.3949 0.0 0.0
N_2176071703_4e2b333 26.7450 2.8094 0.0 0.0
N_2176071704_56ea7ff 26.7420 2.6900 0.0 0.0
N_2176071706_8cf3f63 26.7390 2.9664 0.0 0.0
N_2176072702_71463f0 26.7250 3.7070 0.0 0.0
N_2176072703_95ff69c 26.7180 8.5727 0.0 0.0
N_2176072704_1014117 26.7320 3.7000 0.0 0.0
N_2176073801_a5dacee 26.7120 18.1716 0.0 0.0
N_2176073802_480cb59 26.7050 13.7505 0.0 0.0
N_2176073804_1c0ec4a 26.6980 12.0393 0.0 0.0
N_2176073806_afc4d43 26.6910 8.3810 0.0 0.0
N_2176074802_098b0d7 26.6850 5.9340 0.0 0.0
N_2176074803_6da0216 26.6780 3.7540 0.0 0.0
N_2176075801_0e27744 26.6640 3.8033 0.0 0.0
N_2176075802_7265b2c 26.6570 6.0202 0.0 0.0
N_2176075803_5ac6f74 26.6510 6.7137 0.0 0.0
N_2176075903_0daf1a9 26.6440 4.5446 0.0 0.0
N_2176076405_855a85a 24.6000 6.4148 0.0 0.0
N_2176076406_b2ebf2d 24.3000 6.7148 0.0 0.0
N_2176076502_fa0a3e2 24.3320 4.9552 0.0 0.0
N_2176076503_0b84ac4 24.3180 5.1427 0.0 0.0
N_2176076504_7a3d2d5 24.3450 4.2970 0.0 0.0
N_2176076601_c2ace87 24.4000 4.0060 0.0 0.0
N_2176076602_0e22cfc 24.3860 9.7169 0.0 0.0
N_2176076603_5ddb875 24.3730 9.7299 0.0 0.0
N_2176076604_4fe3efd 24.3590 5.0504 0.0 0.0
N_2176076701_cdfd89d 24.4140 26.1322 0.0 0.0
N_2176076702_a8b10b0 24.4270 14.6989 0.0 0.0
N_2176076703_3624306 24.4410 6.5999 0.0 0.0
N_2176076801_2040d1c 24.4540 4.0366 0.0 0.0
N_2176076901_080c371 26.6370 15.6798 0.0 0.0
N_2176076903_c0208e6 26.5490 15.7678 0.0 0.0
N_2176076904_e004631 25.1750 16.7021 0.0 0.0
N_2176076905_102610e 25.1650 5.2864 0.0 0.0
N_2176076906_b00b0bf 25.1550 5.2964 0.0 0.0
N_2176077401_cbaa31a 24.6000 6.8950 0.0 0.0
N_2176077402_4ab1840 24.2650 5.3595 0.0 0.0
N_2176077403_ba46831 24.2440 5.6050 0.0 0.0
N_2176077404_cc86d7a 24.2150 7.2170 0.0 0.0
N_2176077405_2183818 24.2810 5.3435 0.0 0.0
N_2176077501_5d6942d 24.5760 6.0503 0.0 0.0
N_2176077801_979487f 24.4680 5.1067 0.0 0.0
N_2176077802_4bbca12 25.1360 4.8780 0.0 0.0
N_2176077803_6f69ff8 24.4900 7.8173 0.0 0.0
N_2176077804_c3089fd 24.4760 9.4961 0.0 0.0
N_2176077805_efd02c4 24.4850 7.8223 0.0 0.0
N_2176077901_6701e34 25.1420 9.2392 0.0 0.0
N_2176078101_04d4bc8 23.9550 4.1139 0.0 0.0
N_2176078201_b11df1e 23.9740 5.1399 0.0 0.0
N_2176078301_e7380d7 24.0000 4.7397 0.0 0.0
N_2176078302_15fd831 24.0340 5.2844 0.0 0.0
N_2176078401_976353a 24.1510 6.2810 0.0 0.0
N_2176078501_8f8137c 24.6390 6.0978 0.0 0.0
N_2176078601_7dc6874 24.7260 7.3509 0.0 0.0
N_2176078701_ebf4faf 24.8040 8.1622 0.0 0.0
N_2176079001_9dee874 23.9110 5.3036 0.0 0.0
N_2176079701_c6a9413 24.8690 7.5630 0.0 0.0
N_2176079801_5d131b6 24.9260 7.6603 0.0 0.0
N_2176079802_c985136 25.1190 8.3130 0.0 0.0
N_2176086001_5cc4aa8 25.1850 17.6501 0.0 0.0
N_2176086002_fda466c 25.2030 7.2951 0.0 0.0
N_2176086003_11b71e7 25.1950 12.8236 0.0 0.0
N_2176086004_94a18e3 25.2080 5.2762 0.0 0.0
N_2176086101_a38cf1c 25.2340 4.5803 0.0 0.0
N_2176086102_931c4ca 25.2240 4.2623 0.0 0.0
N_2176086103_2bf23f1 25.2140 5.0847 0.0 0.0
N_2176086201_8b05bc4 25.2730 3.1590 0.0 0.0
N_2176086202_7ddaa94 25.2630 3.3005 0.0 0.0
N_2176086203_2aca2bf 25.2530 7.3766 0.0 0.0
N_2176086204_da92bfd 25.2440 5.4838 0.0 0.0
N_2176086301_5cf361c 25.2730 3.3130 0.0 0.0
N_2176086302_6929b9d 25.2940 8.9580 0.0 0.0
N_2176086303_526c342 25.3150 6.2869 0.0 0.0
N_2176086401_7b3c66b 25.3360 5.5254 0.0 0.0
N_2176086402_36a0b7d 25.3570 5.2380 0.0 0.0
N_2176087401_b77efbf 25.3790 4.6719 0.0 0.0
N_2176087402_64d4229 25.4000 4.9819 0.0 0.0
N_2176087403_6b00b44 25.4210 3.1834 0.0 0.0
N_2176087501_49b2d2f 25.4420 4.2603 0.0 0.0
N_2176088501_5b69f30 25.4630 4.9690 0.0 0.0
N_2176088502_f037251 25.4840 4.7124 0.0 0.0
N_2176088503_630d152 25.5060 6.4888 0.0 0.0
N_2176088504_b93cbf9 25.5270 4.9327 0.0 0.0
N_2176088601_6c16cc9 25.5480 4.8840 0.0 0.0
N_2176088701_ba542e6 27.1150 7.3170 0.0 0.0
N_2176088801_16b37d2 27.1870 10.4836 0.0 0.0
N_2176088802_b897a7c 27.1530 9.0609 0.0 0.0
N_2176088901_cc3f2c4 27.2520 8.9533 0.0 0.0
N_2176088902_9d88842 27.2200 8.2691 0.0 0.0
N_2176089501_b82b51d 25.7710 2.8159 0.0 0.0
N_2176089502_d486bff 25.8700 2.7500 0.0 0.0
N_2176089601_de68ff6 25.5580 5.7171 0.0 0.0
N_2176089602_aacd635 25.5720 5.9703 0.0 0.0
N_2176089603_14ce85c 27.0310 10.2674 0.0 0.0
N_2176089604_e6fe023 25.5900 5.9523 0.0 0.0
N_2176089605_6d3dd75 25.5380 6.7499 0.0 0.0
N_2176089606_ee5b708 25.6100 6.6779 0.0 0.0
N_2176089607_0e1f936 25.6730 6.7590 0.0 0.0
N_2176089608_b89c783 25.6300 6.6699 0.0 0.0
N_2176089701_d08f7d5 27.0660 13.3152 0.0 0.0
N_2176098001_d21d76b 27.2800 8.7766 0.0 0.0
N_2176099901_2949adf 28.8120 5.0104 0.0 0.0
N_2176099902_e02183a 28.5610 9.3302 0.0 0.0
N_2176100101_86867d6 25.1870 7.2450 0.0 0.0
N_2176100102_06bd050 25.1090 5.4600 0.0 0.0
N_2176100601_c83b4ac 25.7600 7.8224 0.0 0.0
N_2176101101_c5fc24d 25.0210 4.5790 0.0 0.0
N_2176104901_f0e105d 26.4050 5.8139 0.0 0.0
N_2176104902_7b6f65e 26.3420 5.4941 0.0 0.0
N_2176104903_4f133c9 26.2790 5.5978 0.0 0.0
N_2176104904_16543be 26.2160 4.5500 0.0 0.0
N_2176106601_62e551d 26.2000 8.2320 0.0 0.0
N_2176106602_0cbc3ed 26.1810 11.8463 0.0 0.0
N_2176106603_7914d1d 26.1540 8.9469 0.0 0.0
N_2176107601_d6fa215 26.1180 6.3426 0.0 0.0
N_2176107602_79bd1fd 26.0810 6.3796 0.0 0.0
N_2176107701_5656f59 26.0470 7.3682 0.0 0.0
N_2176107702_f4322de 26.0030 6.4594 0.0 0.0
N_2176107703_a7eae3f 25.9550 7.4577 0.0 0.0
N_2176107801_5ebb080 25.4000 5.0588 0.0 0.0
N_2176107802_5df2a96 25.5850 4.1496 0.0 0.0
N_2176107803_de2325d 25.6990 3.7417 0.0 0.0
N_2176108701_1a50e7b 25.9020 4.8822 0.0 0.0
N_2176108702_ff256e8 25.9590 4.5051 0.0 0.0
N_2176108703_1fbd9f6 26.0760 10.0967 0.0 0.0
N_2176108704_c75aa23 26.2540 7.7311 0.0 0.0
N_2176108801_13055e7 25.7960 5.2608 0.0 0.0
N_2176109301_1b777ce 28.0500 4.6172 0.0 0.0
N_2176109302_d044bf7 28.0370 4.7025 0.0 0.0
N_2176109701_6ea9712 26.3910 13.6131 0.0 0.0
N_2176109702_db64615 26.5350 12.9763 0.0 0.0
N_2176109703_e06719e 26.6500 15.1442 0.0 0.0
N_2176109704_37204f3 26.7200 8.9521 0.0 0.0
N_2176109705_986ab9b 26.8390 8.7210 0.0 0.0
N_2176110101_1396580 27.3500 3.5293 0.0 0.0
N_2176110102_725ef23 27.2870 4.2799 0.0 0.0
N_2176110103_9204856 27.2240 4.7846 0.0 0.0
N_2176110104_d45c905 27.1610 4.3861 0.0 0.0
N_2176111101_fdfd591 27.0980 4.3340 0.0 0.0
N_2176111102_2a3a20a 27.0350 4.4681 0.0 0.0
N_2176111103_e31c0f7 26.9720 4.4600 0.0 0.0
N_2176111104_5a89744 26.9090 4.3272 0.0 0.0
N_2176112001_f55e30e 26.8460 4.3902 0.0 0.0
N_2176112002_e3b4138 26.7830 4.5704 0.0 0.0
N_2176112003_97b7378 26.7200 3.7199 0.0 0.0
N_2176112004_d6c7dcd 26.6570 3.7974 0.0 0.0
N_2176113001_945c73d 26.5940 3.8380 0.0 0.0
N_2176113002_7898d2d 26.5310 3.9010 0.0 0.0
N_2176113003_3eb6d2f 26.4680 4.6486 0.0 0.0
N_2176118002_c84bbff 24.2110 7.1079 0.0 0.0
N_2176118003_eb21573 24.4200 6.8989 0.0 0.0
N_2176118004_79d834f 25.0440 7.6644 0.0 0.0
N_2176118502_221d21f 27.0690 6.1314 0.0 0.0
N_2176118503_c10c827 27.2740 7.7716 0.0 0.0
N_2176119001_348a82b 25.4470 7.2614 0.0 0.0
N_2176119002_4416c31 26.1400 6.7117 0.0 0.0
N_2176119003_60c6537 26.5280 5.9040 0.0 0.0
N_2176130101_ba6da88 32.5860 5.0888 0.0 0.0
N_2176130102_2822836 32.5490 4.0505 0.0 0.0
N_2176130103_c1949a0 32.5350 9.0028 0.0 0.0
N_2176130201_c4188f5 32.5210 5.4000 0.0 0.0
N_2176130202_1a581c1 32.4900 5.7148 0.0 0.0
N_2176130203_eeb7ea3 32.4580 6.6649 0.0 0.0
N_2176130501_a1227c3 33.1220 9.9190 0.0 0.0
N_2176130502_8c070fe 33.0040 10.2643 0.0 0.0
N_2176130503_452770a 32.8650 10.2793 0.0 0.0
N_2176130701_0076b2d 31.8390 7.2277 0.0 0.0
N_2176130702_c8ece54 31.7930 5.2620 0.0 0.0
N_2176130801_9a83715 32.7530 7.8803 0.0 0.0
N_2176130802_29bab27 32.6400 7.9933 0.0 0.0
N_2176130803_4f3f40e 32.5160 11.0530 0.0 0.0
N_2176131201_a64d234 32.4260 6.6969 0.0 0.0
N_2176131202_acd41d8 32.3940 10.2741 0.0 0.0
N_2176131203_e017ed3 32.3800 3.5740 0.0 0.0
N_2176131301_61cf757 32.1270 5.0796 0.0 0.0
N_2176131302_75eac93 31.9090 5.2976 0.0 0.0
N_2176131303_e446ce9 30.6220 7.6479 0.0 0.0
N_2176131401_6b4734c 30.7150 6.8902 0.0 0.0
N_2176131402_15a1f81 30.8370 5.5950 0.0 0.0
N_2176131501_d285c62 32.7260 5.4467 0.0 0.0
N_2176131502_c3027c3 32.5870 3.8450 0.0 0.0
N_2176131503_fb3a5ab 32.4710 3.9610 0.0 0.0
N_2176131504_2c93a56 32.3070 4.4453 0.0 0.0
N_2176131505_7164a1f 31.1020 5.3300 0.0 0.0
N_2176131506_e4e38d8 31.0240 5.6366 0.0 0.0
N_2176131507_44800c2 30.9740 6.4580 0.0 0.0
N_2176131601_6bf0eba 31.1290 5.2697 0.0 0.0
N_2176131602_3035824 31.1170 4.7150 0.0 0.0
N_2176131603_e834855 31.1510 4.6160 0.0 0.0
N_2176131701_1a81b41 31.7760 5.2620 0.0 0.0
N_2176131702_f236e1b 31.7020 5.1300 0.0 0.0
N_2176131703_1d9f74f 31.6350 5.4813 0.0 0.0
N_2176131704_a571d93 31.5660 5.5503 0.0 0.0
N_2176131705_2ec3f7a 31.5280 5.6199 0.0 0.0
N_2176132301_502d42d 30.5580 6.8740 0.0 0.0
N_2176132302_62f2eb8 29.8760 10.0000 0.0 0.0
N_2176132303_7ff8ed6 29.8450 7.2419 0.0 0.0
N_2176132701_615865b 31.1900 5.9579 0.0 0.0
N_2176132702_9f14e6b 31.2240 6.1676 0.0 0.0
N_2176132703_f9906fc 31.2720 5.2999 0.0 0.0
N_2176133301_6cb46a1 29.8270 7.2599 0.0 0.0
N_2176133302_ec5b2fd 29.8060 7.1197 0.0 0.0
N_2176133303_4d6759f 29.7890 6.6720 0.0 0.0
N_2176133701_4123d4a 31.3180 5.1790 0.0 0.0
N_2176133702_6cd9a43 31.3600 6.8039 0.0 0.0
N_2176133703_fc837ad 31.4830 6.8989 0.0 0.0
N_2176133704_461857b 31.4130 6.7509 0.0 0.0
N_2176133801_9ae8ccc 31.6080 6.7486 0.0 0.0
N_2176133802_5e5fe62 31.7330 5.2663 0.0 0.0
N_2176133803_f147ae9 31.8550 4.5770 0.0 0.0
N_2176133804_aeb77f0 31.9550 4.4770 0.0 0.0
N_2176134301_78da050 29.7430 5.7090 0.0 0.0
N_2176134302_1debad7 29.7230 5.6659 0.0 0.0
N_2176134303_627dcda 29.7050 5.6959 0.0 0.0
N_2176134801_26ac245 31.9600 4.5025 0.0 0.0
N_2176134802_47f645a 31.9640 5.4680 0.0 0.0
N_2176134803_ff759e0 31.9690 8.3037 0.0 0.0
N_2176134901_bedf0cf 31.9730 8.9168 0.0 0.0
N_2176134902_47db87b 31.9780 19.9832 0.0 0.0
N_2176135301_3818e4c 29.6840 6.1350 0.0 0.0
N_2176135302_3ee42e5 29.6620 6.7629 0.0 0.0
N_2176135303_3e48c18 29.6400 7.2835 0.0 0.0
N_2176135901_234a18c 31.9830 10.0891 0.0 0.0
N_2176135902_a371e8e 31.9870 10.3845 0.0 0.0
N_2176136201_9df6c3b 28.7470 8.7369 0.0 0.0
N_2176136301_f84c857 29.3490 7.1110 0.0 0.0
N_2176136302_a4eeff6 29.2450 7.2150 0.0 0.0
N_2176136303_fcc30a4 28.9970 8.0547 0.0 0.0
N_2176137201_2488f74 28.4980 7.1850 0.0 0.0
N_2176137202_918d79b 28.2500 7.5300 0.0 0.0
N_2176137203_388a2a9 27.3770 7.7230 0.0 0.0
N_2176137204_9a9e42b 27.0210 8.5331 0.0 0.0
N_2176138201_3b912ef 26.6690 8.8851 0.0 0.0
N_2176138202_dce6190 26.2780 5.2390 0.0 0.0
N_2176140401_886fc71 37.3250 10.2813 0.0 0.0
N_2176140501_ab282ba 36.9640 34.4709 0.0 0.0
N_2176140502_4999530 37.0660 25.8100 0.0 0.0
N_2176141601_577c7c3 37.9680 8.7246 0.0 0.0
N_2176141901_e65e429 40.0000 8.7888 0.0 0.0
N_2176141902_96b3244 39.8440 10.6853 0.0 0.0
N_2176142701_d4bdfd3 38.5090 12.0500 0.0 0.0
N_2176142901_64788fa 39.5190 15.9130 0.0 0.0
N_2176143801_ef91349 39.0450 9.3870 0.0 0.0
N_2176145001_73a5b1f 32.8640 5.2080 0.0 0.0
N_2176145002_abfcad7 32.8230 4.8148 0.0 0.0
N_2176145003_a10c01e 32.0000 5.6378 0.0 0.0
N_2176145004_2c26ee4 31.9920 8.6073 0.0 0.0
N_2176145005_1b6f231 31.9970 6.8677 0.0 0.0
N_2176145101_f2db154 32.9360 6.0569 0.0 0.0
N_2176145102_8df2215 32.9990 5.1264 0.0 0.0
N_2176145103_cb6655d 33.0620 6.7347 0.0 0.0
N_2176145104_599560a 33.1130 9.2264 0.0 0.0
N_2176145301_e7072ba 34.6330 7.0913 0.0 0.0
N_2176145302_c5ab9fa 34.5890 6.9871 0.0 0.0
N_2176145401_08f44e1 34.7180 6.7710 0.0 0.0
N_2176145402_12450a3 34.6770 6.8572 0.0 0.0
N_2176145403_d78e2f6 34.7610 7.3161 0.0 0.0
N_2176145501_35bd8a0 34.9410 18.1547 0.0 0.0
N_2176145502_8088bea 34.8970 13.9718 0.0 0.0
N_2176145503_49199a3 34.8550 9.8201 0.0 0.0
N_2176145504_b5f26f2 34.8130 9.6253 0.0 0.0
N_2176145603_b46da0b 34.9830 13.5760 0.0 0.0
N_2176145604_3babfdd 35.0350 8.9809 0.0 0.0
N_2176145605_683c813 35.0600 8.9559 0.0 0.0
N_2176146201_3463897 33.1820 10.2584 0.0 0.0
N_2176146202_f5ee4e4 33.2500 11.9726 0.0 0.0
N_2176146203_5a9bafe 33.5000 6.8201 0.0 0.0
N_2176146204_1ac573a 34.4220 5.8981 0.0 0.0
N_2176146301_9a2dd11 34.5510 12.0880 0.0 0.0
N_2176146302_a1d2345 34.5070 12.1320 0.0 0.0
N_2176146303_b236e9e 34.4640 7.0786 0.0 0.0
N_2176146304_63b1bbe 34.4900 12.3973 0.0 0.0
N_2176146601_aad2494 35.1710 8.8449 0.0 0.0
N_2176146602_8ea629a 35.2300 5.7616 0.0 0.0
N_2176146603_90b2b48 35.2570 5.7346 0.0 0.0
N_2176146604_bc092af 35.3030 5.6886 0.0 0.0
N_2176146605_7a746de 35.4850 5.4160 0.0 0.0
N_2176146701_b94bc72 35.6250 11.5564 0.0 0.0
N_2176146702_3b6c548 35.7800 7.5906 0.0 0.0
N_2176147701_bab95b6 35.9440 6.4880 0.0 0.0
N_2176147702_1d221c9 36.0480 6.7660 0.0 0.0
N_2176147703_287f862 36.1930 13.2390 0.0 0.0
N_2176147801_4802fb0 36.3870 9.8501 0.0 0.0
N_2176147802_1f680d9 36.5780 6.3437 0.0 0.0
N_2176147803_5c32444 36.7120 6.3925 0.0 0.0
N_2176147804_66a4857 36.8620 6.8920 0.0 0.0
N_2176147901_9d9908c 37.3860 7.5119 0.0 0.0
N_2176147902_7013b6c 37.2130 7.7420 0.0 0.0
N_2176147903_41358e2 37.1090 7.8111 0.0 0.0
N_2176156101_cdebd0c 38.6950 15.1390 0.0 0.0
N_2176156102_d26e96d 38.4940 21.2156 0.0 0.0
N_2176156103_8420126 38.2550 16.6186 0.0 0.0
N_2176156201_0a9cbc7 39.2500 23.9988 0.0 0.0
N_2176156202_94324b1 39.4900 31.4807 0.0 0.0
N_2176156301_a53d86d 40.3000 19.0856 0.0 0.0
N_2176156302_0dc072a 40.1200 9.7251 0.0 0.0
N_2176157001_e179061 37.7830 20.8630 0.0 0.0
N_2176157002_0b32c2b 37.6080 7.0383 0.0 0.0
N_2176157101_e04a53b 37.9890 21.7136 0.0 0.0
N_2176157401_a0538f4 40.7000 7.3909 0.0 0.0
N_2176157402_5121d38 40.9000 11.0012 0.0 0.0
N_2176157501_1296131 41.2000 7.6133 0.0 0.0
N_2176157601_f1c899a 41.5000 6.3962 0.0 0.0
N_2176157602_51bd60c 42.4280 7.0955 0.0 0.0
N_2176157603_cece9ea 41.8940 7.2198 0.0 0.0
N_2176157604_18819ab 43.0830 4.3490 0.0 0.0
N_2176157701_0e04fb2 44.0620 7.3543 0.0 0.0
N_2176158701_0fa4e6c 43.5270 8.4046 0.0 0.0
N_2176158801_53280ec 45.0000 8.4534 0.0 0.0
N_2177054801_f911f67 25.0570 5.6694 0.0 0.0
N_2177054802_f36a9d4 25.0910 5.3410 0.0 0.0
N_2177054803_3436a23 25.1250 5.3070 0.0 0.0
N_2177054804_4999d64 25.1330 5.2990 0.0 0.0
N_2177054805_aa8dcee 25.1470 5.2850 0.0 0.0
N_2177054901_4d99706 24.9200 5.5532 0.0 0.0
N_2177054902_2ca95ae 24.9540 4.4994 0.0 0.0
N_2177054903_7daa600 24.9890 5.4106 0.0 0.0
N_2177054904_dde8c17 25.0230 5.7034 0.0 0.0
N_2177055701_dd20055 25.1590 7.9619 0.0 0.0
N_2177055702_5c56695 25.1930 9.1272 0.0 0.0
N_2177055703_1aac109 25.2270 6.7917 0.0 0.0
N_2177055704_4550459 25.2410 6.7777 0.0 0.0
N_2177055705_0245413 25.2630 5.7488 0.0 0.0
N_2177055706_9f01a26 25.2970 8.5742 0.0 0.0
N_2177056701_765798f 25.3310 8.4200 0.0 0.0
N_2177056702_032f1e3 25.3650 8.9361 0.0 0.0
N_2177056703_f5da5bd 25.3850 8.8691 0.0 0.0
N_2177056704_1f6448f 25.3930 8.8611 0.0 0.0
N_2177056801_a147267 25.3990 8.8551 0.0 0.0
N_2177056802_a6803ca 25.4330 6.1722 0.0 0.0
N_2177057801_cfc8b9f 25.4670 6.3981 0.0 0.0
N_2177057802_e071dbb 25.5010 9.4250 0.0 0.0
N_2177057803_93953ce 25.5350 7.8161 0.0 0.0
N_2177057804_3489f13 25.5700 7.0599 0.0 0.0
N_2177058801_323ce0b 25.5960 7.3703 0.0 0.0
N_2177058802_a6f7f75 25.6040 7.3623 0.0 0.0
N_2177058803_e73b116 25.6270 6.0157 0.0 0.0
N_2177058804_158dced 25.6380 6.0047 0.0 0.0
N_2177058901_618378e 25.6720 6.5979 0.0 0.0
N_2177059901_e7b6b3c 25.7060 6.7260 0.0 0.0
N_2177059902_fd82b84 25.7400 6.4676 0.0 0.0
N_2177059903_a071a2a 25.8000 6.3956 0.0 0.0
N_2177059904_16f036b 25.8590 6.3247 0.0 0.0
N_2177060001_92ea60d 23.6010 5.0203 0.0 0.0
N_2177060002_0f96e68 24.4450 4.8207 0.0 0.0
N_2177060003_e143a4f 24.4790 4.7987 0.0 0.0
N_2177060201_f04462e 23.6600 4.1990 0.0 0.0
N_2177060401_8830ab5 23.7060 4.1400 0.0 0.0
N_2177060901_a9973cb 24.6600 6.6205 0.0 0.0
N_2177060902_71e4e41 24.6830 6.7490 0.0 0.0
N_2177060903_ce9f6d2 24.7040 6.7280 0.0 0.0
N_2177060904_b568669 24.7270 5.8139 0.0 0.0
N_2177061001_c6c41f4 24.5130 4.6516 0.0 0.0
N_2177061002_b1d73b9 24.5470 4.0154 0.0 0.0
N_2177061003_21da1e4 24.5810 4.2240 0.0 0.0
N_2177061901_85bf590 24.7620 6.5083 0.0 0.0
N_2177061902_ebebde1 24.7870 6.6450 0.0 0.0
N_2177061903_c3d2702 24.8040 6.6280 0.0 0.0
N_2177062001_6245582 24.6150 5.6260 0.0 0.0
N_2177062002_e858a64 24.6490 5.3561 0.0 0.0
N_2177062003_e27e116 24.6840 4.8473 0.0 0.0
N_2177062004_953abe7 24.7180 4.8333 0.0 0.0
N_2177062005_ed543f0 24.7230 4.8283 0.0 0.0
N_2177063001_01b46e5 24.7510 5.1760 0.0 0.0
N_2177063002_56a2402 24.7860 5.1868 0.0 0.0
N_2177063003_4e7ee69 24.8080 4.6708 0.0 0.0
N_2177063004_2bc32e2 24.8180 4.6608 0.0 0.0
N_2177063005_b215e2e 24.8240 4.6548 0.0 0.0
N_2177063006_1389090 24.8290 5.5672 0.0 0.0
N_2177063007_9bc04e3 24.8350 5.5612 0.0 0.0
N_2177063008_2f1c92e 25.0340 4.4448 0.0 0.0
N_2177063009_8cd9c80 24.8520 8.8192 0.0 0.0
N_2177063010_6305701 24.8860 7.3102 0.0 0.0
N_2177063011_62e65cb 25.0750 8.1077 0.0 0.0
N_2177064001_86ad72e 25.1310 7.4371 0.0 0.0
N_2177064101_3765e0d 25.1750 7.3931 0.0 0.0
N_2177064102_ca7facb 25.2410 8.5560 0.0 0.0
N_2177065101_9adfff3 25.3640 8.0959 0.0 0.0
N_2177065102_3edf65a 25.4220 5.0352 0.0 0.0
N_2177065103_51d40cf 25.5070 6.3988 0.0 0.0
N_2177066101_e08cc53 25.6000 6.8475 0.0 0.0
N_2177066102_51dd0ce 25.7480 8.4126 0.0 0.0
N_2177067201_4ce89ff 25.9040 11.0705 0.0 0.0
N_2177067801_5701e8f 25.3570 3.5400 0.0 0.0
N_2177067901_3fd470f 25.3020 3.3658 0.0 0.0
N_2177067902_133db61 25.3170 2.5299 0.0 0.0
N_2177067903_e5621c1 25.3310 4.1965 0.0 0.0
N_2177067904_fe4f23c 25.3440 3.4712 0.0 0.0
N_2177068201_1cb161d 26.0820 4.9497 0.0 0.0
N_2177068701_00a7d32 25.3960 4.2000 0.0 0.0
N_2177068702_e8a798e 25.4040 4.0280 0.0 0.0
N_2177068703_7320a0f 25.4260 6.7394 0.0 0.0
N_2177068801_35050e1 25.3700 2.4410 0.0 0.0
N_2177068802_71684fe 25.3830 3.1936 0.0 0.0
N_2177068803_71e3663 25.4150 6.7504 0.0 0.0
N_2177069301_ad6f30a 26.2650 9.3262 0.0 0.0
N_2177069302_4a07e12 26.4110 6.8362 0.0 0.0
N_2177069303_5241e8e 26.4670 6.9974 0.0 0.0
N_2177069401_0f1934e 26.6430 2.1574 0.0 0.0
N_2177069601_2c8cb24 25.5440 3.9334 0.0 0.0
N_2177069602_dd2c2b9 25.5750 6.8386 0.0 0.0
N_2177069603_05f1fed 25.6030 5.8217 0.0 0.0
N_2177069604_ac7785d 25.6340 5.1649 0.0 0.0
N_2177069701_d32b385 25.4550 6.6746 0.0 0.0
N_2177069702_5f9d985 25.4850 5.8835 0.0 0.0
N_2177069703_7e72608 25.5140 4.8655 0.0 0.0
N_2177069801_fada290 25.7800 6.3854 0.0 0.0
N_2177069802_1beb8d3 25.7820 6.3834 0.0 0.0
N_2177069803_4f97634 26.0000 6.4320 0.0 0.0
N_2177069804_0bc9589 26.0100 6.4220 0.0 0.0
N_2177069805_f80ceb5 26.0430 6.3060 0.0 0.0
N_2177069806_462c354 26.0670 6.2820 0.0 0.0
N_2177069901_2748b26 26.7940 6.6380 0.0 0.0
N_2177069902_c5350be 26.8360 5.5960 0.0 0.0
N_2177070801_bc99210 25.2630 10.2176 0.0 0.0
N_2177070901_e3253c5 25.3950 6.8903 0.0 0.0
N_2177070902_2907d4e 25.5880 6.0915 0.0 0.0
N_2177070903_ca91bbb 25.4790 6.8063 0.0 0.0
N_2177072001_8a2deaf 24.8200 5.7583 0.0 0.0
N_2177072002_373606c 24.8540 5.5780 0.0 0.0
N_2177072003_e23ead0 24.8630 6.0249 0.0 0.0
N_2177072004_6a8a756 24.8860 6.0019 0.0 0.0
N_2177073001_6e49176 24.9090 5.5230 0.0 0.0
N_2177073002_dfb9525 24.9320 5.5402 0.0 0.0
N_2177073003_58536dc 24.9550 4.7475 0.0 0.0
N_2177073101_b4182e4 24.9820 4.8112 0.0 0.0
N_2177074101_c4395d2 25.0070 5.8246 0.0 0.0
N_2177074102_521ca19 25.0290 5.0462 0.0 0.0
N_2177074103_7bca6b3 25.0530 6.1526 0.0 0.0
N_2177075101_ed7dd04 25.0760 5.6915 0.0 0.0
N_2177075102_8741c74 25.0980 6.7080 0.0 0.0
N_2177075103_f3e2e9e 25.1210 5.8076 0.0 0.0
N_2177075201_9c11b90 25.1440 5.7846 0.0 0.0
N_2177076001_604e59a 25.2610 5.4784 0.0 0.0
N_2177076101_6f6bfce 25.1930 3.9271 0.0 0.0
N_2177076102_84afe60 25.2180 2.6050 0.0 0.0
N_2177076103_2e69943 25.2250 2.5800 0.0 0.0
N_2177076104_517b4ab 25.2360 2.8261 0.0 0.0
N_2177076105_030a9a7 25.2480 5.0960 0.0 0.0
N_2177076106_fdc779f 25.3650 3.3300 0.0 0.0
N_2177076201_454b893 25.1680 3.4885 0.0 0.0
N_2177077001_2ac98b0 25.2730 5.2049 0.0 0.0
N_2177077002_3f07c8f 25.2860 3.1460 0.0 0.0
N_2177077101_9205beb 25.3700 3.7598 0.0 0.0
N_2177077102_0b16b20 25.3840 4.0480 0.0 0.0
N_2177077201_986bf33 25.4660 4.9660 0.0 0.0
N_2177077202_77c7061 25.4000 4.9119 0.0 0.0
N_2177077203_0c394fe 25.4480 10.4639 0.0 0.0
N_2177077204_9a0ac7c 25.5140 5.1080 0.0 0.0
N_2177077301_a048076 25.5650 4.2468 0.0 0.0
N_2177077302_5f5b20f 25.5180 4.5564 0.0 0.0
N_2177077401_d5406a8 25.6250 6.0048 0.0 0.0
N_2177078201_ad2a7bd 25.5790 5.6507 0.0 0.0
N_2177078202_6615d01 25.6450 4.6068 0.0 0.0
N_2177078301_6caa918 25.7100 3.6505 0.0 0.0
N_2177078302_59c34c1 25.7760 4.3471 0.0 0.0
N_2177078303_e92af4a 25.8410 3.6079 0.0 0.0
N_2177079001_c132bd7 26.9000 6.4062 0.0 0.0
N_2177079301_cc0bc64 25.9070 3.8514 0.0 0.0
N_2177079401_86bf3d9 25.9530 8.3286 0.0 0.0
N_2177079402_24cc14b 25.9720 8.3096 0.0 0.0
N_2177079403_ef6d604 26.0380 4.4534 0.0 0.0
N_2177079404_1a7a6ff 26.1030 5.4459 0.0 0.0
N_2177080201_f51465d 26.9060 8.7410 0.0 0.0
N_2177080301_b6e9bb1 26.8100 14.6051 0.0 0.0
N_2177080302_fca8c8c 26.8520 12.5853 0.0 0.0
N_2177080303_228133f 26.8730 10.6507 0.0 0.0
N_2177080304_f17e8e9 26.8950 9.8777 0.0 0.0
N_2177080401_138596b 26.1740 7.4881 0.0 0.0
N_2177080402_969d5bf 26.1850 10.5134 0.0 0.0
N_2177080403_c12370f 26.5850 9.3023 0.0 0.0
N_2177080404_6b7dc29 26.7910 14.6410 0.0 0.0
N_2177080501_1878b33 25.9700 3.8176 0.0 0.0
N_2177080601_1876fb5 25.6500 6.6618 0.0 0.0
N_2177080602_01295a7 25.6700 7.2391 0.0 0.0
N_2177080701_b026bd4 25.6890 7.6964 0.0 0.0
N_2177081001_9057848 25.7500 6.5335 0.0 0.0
N_2177081002_49fb9b9 25.8110 6.4725 0.0 0.0
N_2177081004_3a9e39a 25.8340 6.8492 0.0 0.0
N_2177081102_5cf7c24 26.9390 11.9001 0.0 0.0
N_2177081103_fb1b7a9 27.0020 8.7251 0.0 0.0
N_2177081104_7add54d 27.0210 4.9958 0.0 0.0
N_2177081105_af81b71 25.5530 5.8399 0.0 0.0
N_2177081201_3a10dd6 26.9170 7.8694 0.0 0.0
N_2177081202_94efd71 26.9170 7.8694 0.0 0.0
N_2177081203_3bd1b62 26.9280 13.0122 0.0 0.0
N_2177081701_03b374c 25.7090 7.7873 0.0 0.0
N_2177081702_4166f45 25.7290 7.7673 0.0 0.0
N_2177081703_59085ff 25.7450 6.8671 0.0 0.0
N_2177081704_21cc03f 25.7490 6.8631 0.0 0.0
N_2177081705_fcbc628 25.7520 6.8601 0.0 0.0
N_2177081706_d337653 25.7720 5.8694 0.0 0.0
N_2177082101_c7a6565 25.5860 6.7051 0.0 0.0
N_2177082103_9b733fd 25.6140 7.5405 0.0 0.0
N_2177082701_64b66c6 25.7910 6.4091 0.0 0.0
N_2177082801_096d134 25.8110 8.6210 0.0 0.0
N_2177082802_334ad4a 25.8310 8.6010 0.0 0.0
N_2177082803_15f6564 25.8400 13.3055 0.0 0.0
N_2177082804_c9609fd 25.8430 13.3025 0.0 0.0
N_2177082805_fe77774 25.8520 13.2935 0.0 0.0
N_2177082806_e66ae24 25.8720 9.3429 0.0 0.0
N_2177083201_8dbe169 25.6330 8.3279 0.0 0.0
N_2177083202_5818340 25.6520 9.1173 0.0 0.0
N_2177083203_27a0b33 25.6730 5.5925 0.0 0.0
N_2177083801_8b81126 25.8920 6.6181 0.0 0.0
N_2177083802_b175fca 25.9110 9.6580 0.0 0.0
N_2177083901_df49852 25.9230 9.6460 0.0 0.0
N_2177083902_e1c164f 25.9410 7.5674 0.0 0.0
N_2177083903_9107fc5 25.9510 7.5574 0.0 0.0
N_2177084201_ee258db 25.7030 5.2313 0.0 0.0
N_2177084301_576c3b2 25.7760 8.1964 0.0 0.0
N_2177084901_074b6fd 25.9700 8.6863 0.0 0.0
N_2177084902_d94269e 25.9900 12.3150 0.0 0.0
N_2177084903_9e27641 26.0100 15.1982 0.0 0.0
N_2177084904_5f783a0 26.0170 13.4550 0.0 0.0
N_2177086401_2cab1c9 25.8930 8.5390 0.0 0.0
N_2177087501_256cef5 26.0210 13.5669 0.0 0.0
N_2177090701_c78889e 27.0600 10.3720 0.0 0.0
N_2177090801_a03e9cd 27.5610 12.0536 0.0 0.0
N_2177090802_e63eda5 27.4360 9.9960 0.0 0.0
N_2177090803_0c0163c 27.3110 10.7755 0.0 0.0
N_2177090804_3926b73 27.1850 9.2818 0.0 0.0
N_2177091701_f8d8535 26.9340 9.3810 0.0 0.0
N_2177091702_216f270 26.8170 9.2011 0.0 0.0
N_2177091703_d24dcd8 26.7560 5.5858 0.0 0.0
N_2177091704_fe7e7bb 26.7450 3.4643 0.0 0.0
N_2177091705_d1617c1 26.7620 5.5798 0.0 0.0
N_2177091706_6f3aa83 27.0000 5.3418 0.0 0.0
N_2177091707_90d4e49 26.9990 5.3428 0.0 0.0
N_2177091708_ddc81f7 27.0040 5.3378 0.0 0.0
N_2177092401_7537805 26.4990 19.5803 0.0 0.0
N_2177092402_243058d 26.4700 9.9615 0.0 0.0
N_2177092403_56b2017 26.9100 13.5766 0.0 0.0
N_2177092501_2349ecf 26.6100 3.2310 0.0 0.0
N_2177092502_2f895c9 26.9900 3.6821 0.0 0.0
N_2177092503_6be653c 26.9900 2.8510 0.0 0.0
N_2177092504_8230f1d 26.5880 3.2530 0.0 0.0
N_2177092505_1a93b0e 26.9800 2.8610 0.0 0.0
N_2177092506_19523b1 26.5580 4.2198 0.0 0.0
N_2177092507_3af6afc 26.9700 2.8189 0.0 0.0
N_2177092508_5db4028 26.5290 9.5896 0.0 0.0
N_2177092509_cc8854c 26.9500 3.8278 0.0 0.0
N_2177092510_94dd35a 26.9300 9.1886 0.0 0.0
N_2177092601_ea8b11d 26.9950 3.8400 0.0 0.0
N_2177092602_52de2da 26.9940 5.9389 0.0 0.0
N_2177092603_785def3 26.9940 5.9389 0.0 0.0
N_2177092604_851daf0 26.9930 3.6791 0.0 0.0
N_2177092605_16251bd 26.9910 3.6811 0.0 0.0
N_2177092701_4852727 27.0090 11.9495 0.0 0.0
N_2177092702_bd96f6f 27.0130 7.2003 0.0 0.0
N_2177092703_f1a5c78 27.0180 7.1953 0.0 0.0
N_2177092801_86305a3 27.0230 8.0723 0.0 0.0
N_2177092802_898131b 27.0280 4.2076 0.0 0.0
N_2177093201_3ab5395 26.3220 11.3661 0.0 0.0
N_2177093202_0896db6 26.2930 8.5470 0.0 0.0
N_2177093203_9ee3ff8 26.2640 8.2322 0.0 0.0
N_2177093204_8d88be0 26.7900 13.4525 0.0 0.0
N_2177093205_4c6da54 26.2340 5.0784 0.0 0.0
N_2177093206_5271db0 26.7700 7.7262 0.0 0.0
N_2177093301_7e1f41d 26.4110 9.4880 0.0 0.0
N_2177093302_82f871a 26.3810 8.0510 0.0 0.0
N_2177093303_dbbce9e 26.8600 9.0390 0.0 0.0
N_2177093304_60c95e3 26.3520 9.0573 0.0 0.0
N_2177093305_a23fae7 26.8400 7.8368 0.0 0.0
N_2177093306_2f411fd 26.8200 8.7287 0.0 0.0
N_2177093307_b45f7a6 26.8000 10.8881 0.0 0.0
N_2177093401_3ff6c52 26.4400 5.5398 0.0 0.0
N_2177093402_4539834 26.8900 9.5415 0.0 0.0
N_2177093403_0a3ea9e 26.8800 12.4417 0.0 0.0
N_2177093801_95fa9d0 27.0330 4.2026 0.0 0.0
N_2177093802_d5be7f7 27.0380 7.5789 0.0 0.0
N_2177093803_f805fc0 27.0430 7.3661 0.0 0.0
N_2177093901_2c0b24c 27.0480 4.9004 0.0 0.0
N_2177094001_e8a5c01 26.1160 12.7769 0.0 0.0
N_2177094002_aa79fe8 26.0860 8.1525 0.0 0.0
N_2177094003_030a6aa 26.4130 12.4799 0.0 0.0
N_2177094004_a42d5f2 26.0570 7.1460 0.0 0.0
N_2177094005_b652a95 26.2920 7.9465 0.0 0.0
N_2177094006_d6e5aa3 26.0270 13.4450 0.0 0.0
N_2177094007_d0de870 26.1630 7.6139 0.0 0.0
N_2177094008_6649d12 26.0240 13.4480 0.0 0.0
N_2177094101_80e3ed2 26.2040 9.3930 0.0 0.0
N_2177094102_4c5bbb1 26.1750 9.3018 0.0 0.0
N_2177094103_5995f02 26.7300 8.9694 0.0 0.0
N_2177094104_760fa1c 26.1500 9.5572 0.0 0.0
N_2177094105_423d753 26.7200 8.9794 0.0 0.0
N_2177094106_be33b25 26.1300 9.5772 0.0 0.0
N_2177094107_98d3ad2 26.7000 7.5119 0.0 0.0
N_2177094108_f3bb636 26.5300 12.9020 0.0 0.0
N_2177094201_3badce6 26.7500 7.6156 0.0 0.0
N_2177094901_292316a 27.0520 9.3695 0.0 0.0
N_2177094902_6769a99 27.0570 3.9569 0.0 0.0
N_2177094903_b2c83fb 27.0620 5.5116 0.0 0.0
N_2177094904_deb6194 27.0660 5.4749 0.0 0.0
N_2177094905_fa3be18 27.0690 4.6170 0.0 0.0
N_2177095001_58bb755 26.0270 8.5902 0.0 0.0
N_2177095002_1bd93e1 26.0300 10.1041 0.0 0.0
N_2177095003_94f6d2d 26.0310 10.1031 0.0 0.0
N_2177095004_1958e3d 26.0310 10.1031 0.0 0.0
N_2177095005_1aff641 26.0330 8.5457 0.0 0.0
N_2177095006_5ded0ad 26.0320 8.5467 0.0 0.0
N_2177095007_b320744 26.0350 12.1571 0.0 0.0
N_2177095101_210555a 26.0380 11.1198 0.0 0.0
N_2177095901_929e16c 26.4180 6.1399 0.0 0.0
N_2177095901_2ede70d 26.4180 6.1399 0.0 0.0
N_2177095902_8420168 26.4110 6.1469 0.0 0.0
N_2177095902_44a1bb7 26.4110 6.1469 0.0 0.0
N_2177096101_b5ff73c 26.0410 11.1168 0.0 0.0
N_2177096102_cd846ff 26.0440 4.5044 0.0 0.0
N_2177096103_83909cb 26.0470 10.9000 0.0 0.0
N_2177096104_f722e4d 26.0500 12.7512 0.0 0.0
N_2177096201_1916d31 26.0530 7.4459 0.0 0.0
N_2177096202_ea9dd86 26.0550 7.7821 0.0 0.0
N_2177096801_ef33f7f 26.1330 6.1992 0.0 0.0
N_2177096801_83984aa 26.1330 6.1992 0.0 0.0
N_2177096802_1b47f1b 26.1330 6.1992 0.0 0.0
N_2177096802_5dbef54 26.1330 6.1992 0.0 0.0
N_2177096803_1c6ad1c 26.1320 6.2002 0.0 0.0
N_2177096803_40979a1 26.1320 6.2002 0.0 0.0
N_2177096804_9493838 26.1290 8.7026 0.0 0.0
N_2177096804_fcb6408 26.1290 8.7026 0.0 0.0
N_2177096805_964141a 26.1290 8.7026 0.0 0.0
N_2177096805_5fe1293 26.1290 8.7026 0.0 0.0
N_2177096901_78625d1 26.4060 6.8882 0.0 0.0
N_2177096901_e7f0778 26.4060 6.8882 0.0 0.0
N_2177096902_00735fc 26.1530 7.9937 0.0 0.0
N_2177096902_961b653 26.1530 7.9937 0.0 0.0
N_2177096903_4f2442c 26.1380 8.6014 0.0 0.0
N_2177096903_3af60f3 26.1380 8.6014 0.0 0.0
N_2177096904_682a880 24.9800 9.1667 0.0 0.0
N_2177096904_63ca0a9 24.9800 9.1667 0.0 0.0
N_2177096905_44a3572 26.1350 6.1972 0.0 0.0
N_2177096905_e72db6e 26.1350 6.1972 0.0 0.0
N_2177096906_8f7d68e 26.1340 6.1982 0.0 0.0
N_2177096906_4909874 26.1340 6.1982 0.0 0.0
N_2177096907_6da89ef 26.1330 6.1992 0.0 0.0
N_2177096907_6dc5384 26.1330 6.1992 0.0 0.0
N_2177097201_b110c05 26.0580 12.9024 0.0 0.0
N_2177097301_fc9dea7 26.0610 14.4202 0.0 0.0
N_2177097302_c171dd5 26.0640 8.1157 0.0 0.0
N_2177097303_761a287 26.0670 8.1892 0.0 0.0
N_2177097304_ad7b397 26.0700 8.3620 0.0 0.0
N_2177097401_75aee9b 26.0730 11.2575 0.0 0.0
N_2177097402_0bbb9be 26.0750 11.2555 0.0 0.0
N_2177097601_45f4958 26.1040 16.0204 0.0 0.0
N_2177097602_3994b34 26.1030 16.0214 0.0 0.0
N_2177097603_305a338 26.1010 6.7349 0.0 0.0
N_2177097604_fa31d83 26.1010 6.7349 0.0 0.0
N_2177097605_441c25a 26.0980 6.1990 0.0 0.0
N_2177097606_1f16c40 26.0960 6.2010 0.0 0.0
N_2177097607_179b9d0 26.0950 6.6375 0.0 0.0
N_2177097701_ca3e241 26.1110 12.7858 0.0 0.0
N_2177097702_db28ef7 26.1130 12.1310 0.0 0.0
N_2177097703_b9bd884 26.1070 12.4133 0.0 0.0
N_2177097704_d310f8a 26.1150 6.2891 0.0 0.0
N_2177097801_4a9094c 26.1270 8.5736 0.0 0.0
N_2177097802_b2b7aad 26.1240 8.5766 0.0 0.0
N_2177097803_6201663 26.1210 6.8028 0.0 0.0
N_2177097804_88b7025 26.1180 6.8058 0.0 0.0
N_2177097805_61a30ae 26.1200 5.5394 0.0 0.0
N_2177098401_743a569 26.0780 6.3760 0.0 0.0
N_2177098402_0422a60 26.0800 6.2437 0.0 0.0
N_2177098403_8e5febd 26.0810 6.2427 0.0 0.0
N_2177098404_18f5fd9 26.0810 6.2427 0.0 0.0
N_2177098405_b5f0b96 26.0820 6.2417 0.0 0.0
N_2177098406_4d04a70 26.3120 6.1430 0.0 0.0
N_2177098407_54f3cf9 26.3180 7.5586 0.0 0.0
N_2177098501_c1ca854 26.0820 11.9747 0.0 0.0
N_2177098502_71305d2 26.0840 11.9727 0.0 0.0
N_2177098503_b6210ba 26.0870 17.2950 0.0 0.0
N_2177098504_f3c4310 26.0910 11.0646 0.0 0.0
N_2177098505_cf9ba04 26.0880 17.2940 0.0 0.0
N_2177098506_6639874 26.0900 12.7672 0.0 0.0
N_2177098507_1376bc9 26.9700 11.8872 0.0 0.0
N_2177098508_10f7ca9 26.9750 6.1602 0.0 0.0
N_2177098509_9553f4d 26.9820 6.1532 0.0 0.0
N_2177098601_f209ea1 27.0000 10.9088 0.0 0.0
N_2177098602_8cf800b 27.0080 11.3353 0.0 0.0
N_2177098603_55f7b34 27.0120 8.2532 0.0 0.0
N_2177098801_7357535 26.7000 4.4306 0.0 0.0
N_2177098802_2a31c7c 26.8000 3.8301 0.0 0.0
N_2177098803_506dd33 26.8170 2.8554 0.0 0.0
N_2177098902_7586844 26.8280 3.3526 0.0 0.0
N_2177099401_398eaa8 26.3260 7.8418 0.0 0.0
N_2177099402_40bad5a 26.3330 6.4028 0.0 0.0
N_2177099403_3a480cb 26.3410 8.2752 0.0 0.0
N_2177099404_5c3783b 26.3490 8.0464 0.0 0.0
N_2177099601_cf267db 27.0140 7.6994 0.0 0.0
N_2177099602_ee8845d 27.0220 7.4444 0.0 0.0
N_2177099603_f43a8c0 27.0420 9.5300 0.0 0.0
N_2177100301_bf71906 28.0200 5.5150 0.0 0.0
N_2177100302_044deef 28.0060 4.4260 0.0 0.0
N_2177100303_e50a4e8 27.9830 4.5440 0.0 0.0
N_2177100304_a0625ab 27.9830 4.5440 0.0 0.0
N_2177100305_54b0b32 27.9380 4.4940 0.0 0.0
N_2177100701_4f372f5 26.9900 6.5460 0.0 0.0
N_2177100702_51fee5a 27.1450 6.5338 0.0 0.0
N_2177100703_f5aba82 27.2950 7.1370 0.0 0.0
N_2177100704_4948111 27.4380 6.9940 0.0 0.0
N_2177101201_e4cef8c 27.8950 4.3800 0.0 0.0
N_2177101202_588d887 27.8470 4.2434 0.0 0.0
N_2177101203_bc9e3b7 27.7970 4.1435 0.0 0.0
N_2177101204_b5bfc3f 27.7340 4.0512 0.0 0.0
N_2177101701_3dc22d4 27.4700 6.8893 0.0 0.0
N_2177101702_b548e19 27.5000 5.4913 0.0 0.0
N_2177101703_2922d9b 27.5200 11.0418 0.0 0.0
N_2177101704_dc7b6b9 27.5500 11.0118 0.0 0.0
N_2177101705_69e6794 27.5800 11.8375 0.0 0.0
N_2177102201_64f5a5d 27.6820 4.1151 0.0 0.0
N_2177102202_29fef92 27.6090 5.0466 0.0 0.0
N_2177102203_c56b30c 27.5890 5.0666 0.0 0.0
N_2177102204_06572db 27.5190 6.1885 0.0 0.0
N_2177102205_e243afd 27.6070 7.1548 0.0 0.0
N_2177102301_49b63df 27.6500 7.4271 0.0 0.0
N_2177102302_d3decd7 27.6370 8.4707 0.0 0.0
N_2177102303_e0afbda 27.6240 8.4837 0.0 0.0
N_2177102304_062af8d 27.6160 7.1458 0.0 0.0
N_2177102701_5782a76 27.7000 13.5340 0.0 0.0
N_2177102702_0431eb1 27.9000 13.7153 0.0 0.0
N_2177102703_df8c1a4 28.4950 13.1203 0.0 0.0
N_2177102704_678193c 28.5910 13.0243 0.0 0.0
N_2177103001_d0ee2df 27.2400 6.7302 0.0 0.0
N_2177103101_d359f68 27.4150 5.9075 0.0 0.0
N_2177103102_eefbdb2 27.3830 4.9637 0.0 0.0
N_2177103103_98e1c62 27.3310 4.6326 0.0 0.0
N_2177103104_2e38ea9 27.2950 4.9701 0.0 0.0
N_2177103105_1e237b8 27.2910 4.9741 0.0 0.0
N_2177103106_f9c295e 27.2840 6.6862 0.0 0.0
N_2177103201_d0d6f6f 27.4900 5.8325 0.0 0.0
N_2177103202_d0126be 27.4820 5.8405 0.0 0.0
N_2177103203_6c2cdbf 27.4690 5.8535 0.0 0.0
N_2177103301_6b45778 26.9240 8.1282 0.0 0.0
N_2177103301_3af0ab3 26.9240 8.1282 0.0 0.0
N_2177103302_16a3d7b 26.8730 8.1673 0.0 0.0
N_2177103302_421f424 26.8730 8.1673 0.0 0.0
N_2177104001_865070c 27.1940 11.5588 0.0 0.0
N_2177104002_f394e26 27.1690 11.5838 0.0 0.0
N_2177104003_96eae12 27.1460 3.9745 0.0 0.0
N_2177104004_2b4a089 27.1360 4.0340 0.0 0.0
N_2177104005_73d6174 27.1740 4.3876 0.0 0.0
N_2177104006_697c07a 27.1280 4.0420 0.0 0.0
N_2177104007_0cac3fc 27.1010 4.0690 0.0 0.0
N_2177104008_9607697 27.0720 4.6140 0.0 0.0
N_2177104009_f9f0a41 27.0660 4.6200 0.0 0.0
N_2177104010_d034362 27.0640 4.6220 0.0 0.0
N_2177104011_415b676 27.0800 3.9390 0.0 0.0
N_2177104101_5163f0f 27.1800 6.8341 0.0 0.0
N_2177104102_66f6b16 27.1900 9.7909 0.0 0.0
N_2177104103_ef794f7 27.1870 9.7939 0.0 0.0
N_2177104104_8fe56ac 27.1940 10.7328 0.0 0.0
N_2177104105_59ace02 27.1990 8.7506 0.0 0.0
N_2177104201_b804865 27.2050 7.5177 0.0 0.0
N_2177104202_a6a80b4 27.2090 5.2791 0.0 0.0
N_2177104203_3a621e5 27.2020 8.7476 0.0 0.0
N_2177104204_17ef033 27.2120 5.2761 0.0 0.0
N_2177104205_6a03272 27.2160 5.2721 0.0 0.0
N_2177104301_927681c 26.8220 7.9066 0.0 0.0
N_2177104301_01baeb0 26.8220 7.9066 0.0 0.0
N_2177104302_6060aa5 26.7790 7.5304 0.0 0.0
N_2177104302_4a92d66 26.7790 7.5304 0.0 0.0
N_2177105001_0e65e57 27.0820 5.0678 0.0 0.0
N_2177105002_2022399 27.0870 3.7613 0.0 0.0
N_2177105003_fe336ac 27.0890 3.7593 0.0 0.0
N_2177105004_732a567 27.0900 5.0598 0.0 0.0
N_2177105005_b974b6b 27.0870 5.0628 0.0 0.0
N_2177105006_77844e9 26.2150 4.6205 0.0 0.0
N_2177105006_dc340d2 26.4360 4.3995 0.0 0.0
N_2177105007_1ad0859 26.4330 4.4025 0.0 0.0
N_2177105007_66bb009 26.4330 4.4025 0.0 0.0
N_2177105008_3b5938e 26.4290 4.4065 0.0 0.0
N_2177105008_f6ed605 26.4290 4.4065 0.0 0.0
N_2177105009_b8276a5 26.4280 4.4075 0.0 0.0
N_2177105009_87e9ea6 26.4280 4.4075 0.0 0.0
N_2177105010_cda34e3 26.4270 5.7898 0.0 0.0
N_2177105010_daea428 26.4270 5.7898 0.0 0.0
N_2177105011_60e722b 26.4250 5.7918 0.0 0.0
N_2177105011_e0d499e 26.4250 5.7918 0.0 0.0
N_2177105012_c533040 26.4220 5.7948 0.0 0.0
N_2177105012_e807dce 26.4220 5.7948 0.0 0.0
N_2177105013_0ffdb42 26.2640 8.1781 0.0 0.0
N_2177105013_05cfddb 26.2640 8.1781 0.0 0.0
N_2177105014_10b16b1 26.2430 7.9056 0.0 0.0
N_2177105014_3607d6f 26.2430 7.9056 0.0 0.0
N_2177105015_e7d2107 26.2300 7.9186 0.0 0.0
N_2177105015_31bcc6d 26.2300 7.9186 0.0 0.0
N_2177105017_c14994f 26.2230 4.6125 0.0 0.0
N_2177105017_3f6656c 26.4550 4.3805 0.0 0.0
N_2177105101_d00aec1 26.3280 7.4326 0.0 0.0
N_2177105101_189b75e 26.3280 7.4326 0.0 0.0
N_2177105102_2d437b1 26.3070 7.4757 0.0 0.0
N_2177105102_afe4d00 26.3070 7.4757 0.0 0.0
N_2177105103_c299cd2 26.2850 7.3381 0.0 0.0
N_2177105103_cc0cbb9 26.2850 7.3381 0.0 0.0
N_2177105201_784998e 27.2220 4.7112 0.0 0.0
N_2177105202_4c246d2 26.3700 5.0383 0.0 0.0
N_2177105202_fc5799a 26.3700 5.0383 0.0 0.0
N_2177105203_6961cff 26.3490 5.9763 0.0 0.0
N_2177105203_1346405 26.3490 5.9763 0.0 0.0
N_2177105204_a29f742 26.3920 5.5309 0.0 0.0
N_2177105204_37762f9 26.3920 5.5309 0.0 0.0
N_2177105301_fa4b72d 27.2260 4.7072 0.0 0.0
N_2177105302_9606551 27.2300 4.6923 0.0 0.0
N_2177105303_5eac646 26.7700 5.8035 0.0 0.0
N_2177105303_5722c89 26.7700 5.8035 0.0 0.0
N_2177105304_daf457a 26.7870 5.8676 0.0 0.0
N_2177105304_74e5de0 26.7870 5.8676 0.0 0.0
N_2177105305_62fc696 26.7310 5.1913 0.0 0.0
N_2177105305_a6749d7 26.7310 5.1913 0.0 0.0
N_2177105306_5eb42fd 26.7400 5.1823 0.0 0.0
N_2177105306_c19f17e 26.7400 5.1823 0.0 0.0
N_2177105307_04357ac 26.7550 5.8185 0.0 0.0
N_2177105307_608be71 26.7550 5.8185 0.0 0.0
N_2177105308_560e556 26.7620 5.8115 0.0 0.0
N_2177105308_bf580f0 26.7620 5.8115 0.0 0.0
N_2177105309_825c8d2 26.7940 5.6380 0.0 0.0
N_2177105309_1f856cb 26.7940 5.6380 0.0 0.0
N_2177105310_1d81521 26.4340 5.4717 0.0 0.0
N_2177105310_f731057 26.4340 5.4717 0.0 0.0
N_2177105311_590b0ed 26.4280 5.4777 0.0 0.0
N_2177105311_f7b1ad4 26.4280 5.4777 0.0 0.0
N_2177105312_1b2d3f5 26.7450 5.6870 0.0 0.0
N_2177105312_fdab565 26.7450 5.6870 0.0 0.0
N_2177105313_63dbdb0 26.4270 5.4787 0.0 0.0
N_2177105313_e35f42b 26.4270 5.4787 0.0 0.0
N_2177105314_d18d106 26.4130 5.5342 0.0 0.0
N_2177105314_7d5a1ef 26.4130 5.5342 0.0 0.0
N_2177105315_e969ec5 26.4470 5.4587 0.0 0.0
N_2177105315_02bca36 26.4470 5.4587 0.0 0.0
N_2177105316_d8c0896 26.4540 5.9780 0.0 0.0
N_2177105316_60ae539 26.4540 5.9780 0.0 0.0
N_2177105317_133faba 26.4760 7.4814 0.0 0.0
N_2177105317_c8dd3da 26.4760 7.4814 0.0 0.0
N_2177105318_adc3bf9 26.4970 6.8858 0.0 0.0
N_2177105318_8ac9a24 26.4970 6.8858 0.0 0.0
N_2177105319_aa16381 26.7470 5.8265 0.0 0.0
N_2177105319_b675cdd 26.7470 5.8265 0.0 0.0
N_2177105320_b256615 26.7790 5.8756 0.0 0.0
N_2177105320_e33d1d2 26.7790 5.8756 0.0 0.0
N_2177105401_3e9250e 26.8070 5.6250 0.0 0.0
N_2177105401_9959323 26.8070 5.6250 0.0 0.0
N_2177105402_46fc268 26.8220 5.6100 0.0 0.0
N_2177105402_653925d 26.8220 5.6100 0.0 0.0
N_2177105403_e1828b8 26.8330 5.5990 0.0 0.0
N_2177105403_71124f0 26.8330 5.5990 0.0 0.0
N_2177105404_07ea1f5 26.8490 6.8713 0.0 0.0
N_2177105404_175ba62 26.8490 6.8713 0.0 0.0
N_2177105405_107ee05 26.8660 5.6082 0.0 0.0
N_2177105405_4c7af6f 26.8660 5.6082 0.0 0.0
N_2177105406_a1f8b19 26.8890 5.6761 0.0 0.0
N_2177105406_61d8520 26.8890 5.6761 0.0 0.0
N_2177105407_2100cfe 26.9080 5.6571 0.0 0.0
N_2177105407_2ff876f 26.9080 5.6571 0.0 0.0
N_2177105408_44233f7 26.9060 5.6591 0.0 0.0
N_2177105408_c91f1df 26.9060 5.6591 0.0 0.0
N_2177105501_143e2ba 26.9510 8.0737 0.0 0.0
N_2177105501_dac10ad 26.9510 8.0737 0.0 0.0
N_2177105502_8d780b9 26.9280 5.2555 0.0 0.0
N_2177105502_29f291d 26.9280 5.2555 0.0 0.0
N_2177106401_1b31034 26.5170 6.8658 0.0 0.0
N_2177106401_06288cb 26.5170 6.8658 0.0 0.0
N_2177106402_2928282 26.5380 5.3704 0.0 0.0
N_2177106402_4377a0c 26.5380 5.3704 0.0 0.0
N_2177106403_b914a8f 26.5590 5.8690 0.0 0.0
N_2177106403_90ee6b6 26.5590 5.8690 0.0 0.0
N_2177106404_979f07d 26.5800 5.8306 0.0 0.0
N_2177106404_6a5fd8d 26.5800 5.8306 0.0 0.0
N_2177107401_560ab74 26.6020 6.8300 0.0 0.0
N_2177107401_0dc040f 26.6020 6.8300 0.0 0.0
N_2177107501_084c7eb 26.6230 8.8510 0.0 0.0
N_2177107501_78eda4e 26.6230 8.8510 0.0 0.0
N_2177107502_481478b 26.6440 9.6986 0.0 0.0
N_2177107502_85491ab 26.6440 9.6986 0.0 0.0
N_2177107503_46cc85a 26.6660 22.1727 0.0 0.0
N_2177107503_6f1097c 26.6660 22.1727 0.0 0.0
N_2177108501_484de01 26.6870 5.4995 0.0 0.0
N_2177108501_6522ac3 26.6870 5.4995 0.0 0.0
N_2177108502_cf265b6 26.7080 9.3648 0.0 0.0
N_2177108502_cfac700 26.7080 9.3648 0.0 0.0
N_2177108503_c6955ac 26.7290 11.1341 0.0 0.0
N_2177108503_b6dfe75 26.7290 11.1341 0.0 0.0
N_2177108601_bdf56b5 26.7350 9.5543 0.0 0.0
N_2177108601_91bc79c 26.7350 9.5543 0.0 0.0
N_2177108602_8f85997 26.7400 6.7052 0.0 0.0
N_2177108602_8f8b797 26.7400 6.7052 0.0 0.0
N_2177109601_f8b6042 26.7930 11.1077 0.0 0.0
N_2177109601_795ec84 26.7930 11.1077 0.0 0.0
N_2177109602_21ddb0b 26.8150 8.6209 0.0 0.0
N_2177109602_acf7944 26.8150 8.6209 0.0 0.0
N_2177109603_3e36bc3 26.8360 6.1212 0.0 0.0
N_2177109603_f68b372 26.8360 6.1212 0.0 0.0
N_2177109701_6bc0e31 26.8570 6.1186 0.0 0.0
N_2177109701_98998be 26.8570 6.1186 0.0 0.0
N_2177109801_9cfdb77 27.4560 6.9760 0.0 0.0
N_2177109801_4aa1e1d 27.4560 6.9760 0.0 0.0
N_2177109802_043ace6 27.4470 6.9850 0.0 0.0
N_2177109802_20b1c54 27.4470 6.9850 0.0 0.0
N_2177109803_69db630 27.4080 7.0240 0.0 0.0
N_2177109803_35414f8 27.4080 7.0240 0.0 0.0
N_2177109804_c1b992e 27.3980 7.0340 0.0 0.0
N_2177109804_0c7c96e 27.3980 7.0340 0.0 0.0
N_2177109901_9a0c6ee 27.5530 6.0035 0.0 0.0
N_2177109901_ccfc9d8 27.5530 6.0035 0.0 0.0
N_2177109902_9540bb4 27.5040 8.4832 0.0 0.0
N_2177109902_263ab19 27.5040 8.4832 0.0 0.0
N_2177110001_487c244 26.7660 5.6660 0.0 0.0
N_2177110002_8991bd4 26.8250 11.6070 0.0 0.0
N_2177110003_ab1158a 26.9140 8.5379 0.0 0.0
N_2177110101_8e456f0 26.9760 11.4481 0.0 0.0
N_2177110102_cba2c39 27.0360 5.4317 0.0 0.0
N_2177110103_15f8928 27.1600 6.2558 0.0 0.0
N_2177110104_9b7fec1 27.4610 5.0067 0.0 0.0
N_2177110501_d9cae41 28.0660 12.1100 0.0 0.0
N_2177110601_26a2074 28.5020 14.2939 0.0 0.0
N_2177110602_196f320 28.5500 14.4709 0.0 0.0
N_2177111101_da0ab5a 27.5640 6.2513 0.0 0.0
N_2177111201_5cee703 27.2210 10.5144 0.0 0.0
N_2177111202_77d0ffa 27.2830 13.1929 0.0 0.0
N_2177111203_32f891a 27.5810 11.9529 0.0 0.0
N_2177111301_28b5bbe 27.8770 8.6647 0.0 0.0
N_2177111302_b62ca2e 28.1740 10.8413 0.0 0.0
N_2177111303_d156d96 28.4720 10.2515 0.0 0.0
N_2177111304_3f43d91 28.5910 10.1325 0.0 0.0
N_2177112301_8f5980b 28.6000 8.1072 0.0 0.0
N_2177112401_ec76b77 28.7730 7.9342 0.0 0.0
N_2177112402_0fc4d73 28.9620 7.9579 0.0 0.0
N_2177112403_d000c72 29.1560 10.2389 0.0 0.0
N_2177112404_f51fe0f 29.2340 11.1980 0.0 0.0
N_2177112405_4525323 29.3720 11.0600 0.0 0.0
N_2177112406_80e49e8 29.6460 14.8657 0.0 0.0
N_2177112407_cdbb09c 29.5000 10.5593 0.0 0.0
N_2177113401_e3af9c7 29.8640 10.6007 0.0 0.0
N_2177113402_8841e8d 29.9200 7.4735 0.0 0.0
N_2177113501_21709c6 30.1000 11.0420 0.0 0.0
N_2177113502_79332c5 30.2640 10.8317 0.0 0.0
N_2177113503_d3f57ba 30.0820 15.2328 0.0 0.0
N_2177113504_1089c26 30.1310 10.9647 0.0 0.0
N_2177113505_ef88051 30.0100 12.2704 0.0 0.0
N_2177113601_06d3a77 30.4100 8.3558 0.0 0.0
N_2177113602_2bee81b 30.1650 8.6008 0.0 0.0
N_2177113603_29e35d6 30.3380 9.2847 0.0 0.0
N_2177113604_ac92ef2 30.3710 9.2517 0.0 0.0
N_2177113605_e4e81dd 31.0390 6.6502 0.0 0.0
N_2177113701_56aee60 31.0970 3.6255 0.0 0.0
N_2177113702_06ae46b 30.6500 4.6630 0.0 0.0
N_2177113703_9fb76ca 31.1680 4.1450 0.0 0.0
N_2177113801_c413eb2 31.3300 4.9608 0.0 0.0
N_2177113802_1f1efe6 31.2350 5.8946 0.0 0.0
N_2177113803_64e8895 31.9700 6.4767 0.0 0.0
N_2177113804_f43206c 31.3000 7.1467 0.0 0.0
N_2177114501_331cf38 30.3800 7.5427 0.0 0.0
N_2177114502_890ea1a 30.8690 10.1897 0.0 0.0
N_2177114503_b318550 30.5400 9.8920 0.0 0.0
N_2177115501_40f3c5e 31.4640 5.8380 0.0 0.0
N_2177115502_ba98043 31.2900 8.0332 0.0 0.0
N_2177116201_7640219 27.9920 8.4930 0.0 0.0
N_2177116201_7590b69 27.9920 8.4930 0.0 0.0
N_2177116202_c504476 27.9160 4.5626 0.0 0.0
N_2177116202_553b735 27.9160 4.5626 0.0 0.0
N_2177116501_f2b1dae 31.5860 5.7160 0.0 0.0
N_2177116502_cbeb2e5 31.9780 4.7593 0.0 0.0
N_2177116503_92549b7 32.1100 5.8371 0.0 0.0
N_2177116701_85db9bd 32.6880 4.7440 0.0 0.0
N_2177117101_aa1ba18 27.8430 9.7193 0.0 0.0
N_2177117101_b836f72 27.8430 9.7193 0.0 0.0
N_2177117801_c68e3f9 33.3730 7.0642 0.0 0.0
N_2177117802_b3e07d8 33.4100 7.0272 0.0 0.0
N_2177117803_5761735 33.8590 9.5996 0.0 0.0
N_2177117804_2a0382c 34.1000 9.3586 0.0 0.0
N_2177118001_4489c15 27.7030 7.2187 0.0 0.0
N_2177118001_db3dbd7 27.7030 7.2187 0.0 0.0
N_2177118101_29f3300 27.7770 9.2491 0.0 0.0
N_2177118101_8255d88 27.7770 9.2491 0.0 0.0
N_2177118801_0c938e6 39.1100 12.8071 0.0 0.0
N_2177119001_d1369ef 27.6350 5.4859 0.0 0.0
N_2177119001_2c6d53a 27.6350 5.4859 0.0 0.0
N_2177119002_3315800 27.6070 7.4385 0.0 0.0
N_2177119002_f01a872 27.6070 7.4385 0.0 0.0
N_2177119801_3819d37 40.4800 8.9458 0.0 0.0
N_2177121801_3e99182 26.4740 5.3552 0.0 0.0
N_2177121802_e5c6611 27.1440 5.7996 0.0 0.0
N_2177121803_bc7f21f 27.9450 6.4870 0.0 0.0
N_2177122801_f7b19e6 28.1380 5.3841 0.0 0.0
N_2177122802_63e71c6 28.3030 4.2610 0.0 0.0
N_2177122803_4664021 28.4700 6.8205 0.0 0.0
N_2177123801_e38b294 28.6000 8.0665 0.0 0.0
N_2177123802_0089e09 28.7010 10.0564 0.0 0.0
N_2177123803_283168f 28.7520 11.1509 0.0 0.0
N_2177123901_a623641 28.7570 9.5319 0.0 0.0
N_2177123902_f47f037 29.1370 6.0193 0.0 0.0
N_2177123903_d28e1b8 29.2420 7.0962 0.0 0.0
N_2177123904_8b9e84f 29.3480 6.8824 0.0 0.0
N_2177124901_6fb5aea 29.4790 7.1741 0.0 0.0
N_2177124902_26985fd 29.5440 7.4647 0.0 0.0
N_2177124903_283ff99 29.6110 7.3977 0.0 0.0
N_2177124904_ede9354 29.7360 10.3099 0.0 0.0
N_2177124905_b7f038a 29.8420 9.9018 0.0 0.0
N_2177129001_7bf2eb6 44.2880 8.2426 0.0 0.0
N_2177129101_3fcd860 44.6600 10.2105 0.0 0.0
N_2177134001_f5ef8a0 30.0840 15.4303 0.0 0.0
N_2177134002_fcb274e 29.9880 10.0008 0.0 0.0
N_2177134003_0757b35 30.1970 11.8560 0.0 0.0
N_2177135001_967e84c 30.3080 19.1884 0.0 0.0
N_2177135101_8cb6217 30.4290 11.9800 0.0 0.0
N_2177135102_55d6568 30.5250 8.5087 0.0 0.0
N_2177135103_664b836 30.5740 6.8580 0.0 0.0
N_2177135104_916b3a7 30.6070 9.0447 0.0 0.0
N_2177135201_0bfd5b9 30.6400 21.3149 0.0 0.0
N_2177135202_cf15861 30.6420 22.1528 0.0 0.0
N_2177136201_33cdfca 30.6440 22.1508 0.0 0.0
N_2177136202_59e8418 30.6490 22.4629 0.0 0.0
N_2177136203_8ee22bb 30.6530 22.4589 0.0 0.0
N_2177136204_fc17b5d 30.6550 22.4569 0.0 0.0
N_2177136205_14035fa 30.6570 9.1551 0.0 0.0
N_2177136206_e3ddd98 30.6600 9.1521 0.0 0.0
N_2177136207_6f0ed07 30.6620 7.3003 0.0 0.0
N_2177137201_e6e68ed 30.6670 7.2953 0.0 0.0
N_2177137202_30f53fb 30.6940 9.7380 0.0 0.0
N_2177137203_5527cfc 30.7530 9.6790 0.0 0.0
N_2177137204_f320986 30.8040 9.4599 0.0 0.0
N_2177137205_e96fb60 30.8940 9.3699 0.0 0.0
N_2177137206_617a522 30.9890 5.9373 0.0 0.0
N_2177137207_9d0d3d7 31.0270 5.8993 0.0 0.0
N_2177137301_c73bbf2 32.0000 7.4320 0.0 0.0
N_2177138201_efc8c78 31.1340 6.0505 0.0 0.0
N_2177138202_c903e2e 31.2350 8.1109 0.0 0.0
N_2177138203_a710e15 31.3400 10.0920 0.0 0.0
N_2177138204_969ebd9 31.3850 10.0470 0.0 0.0
N_2177138205_aaad3b8 31.4140 10.0180 0.0 0.0
N_2177138206_59996b9 31.4400 9.9920 0.0 0.0
N_2177138401_f68c5b7 32.3000 6.3511 0.0 0.0
N_2177138501_c53b274 32.7000 7.3340 0.0 0.0
N_2177138502_97fbf3e 33.1970 8.0745 0.0 0.0
N_2177138503_64b8981 33.0320 8.2796 0.0 0.0
N_2177138601_6c5a11a 33.7710 8.2523 0.0 0.0
N_2177138602_eed1e8e 33.9380 7.5320 0.0 0.0
N_2177138603_56ab098 34.0260 7.4440 0.0 0.0
N_2177138604_9218a5c 34.1330 7.3370 0.0 0.0
N_2177139201_6916532 31.5280 9.9040 0.0 0.0
N_2177139202_0983e53 31.5430 9.8890 0.0 0.0
N_2177139203_48f7b65 31.5860 9.8460 0.0 0.0
N_2177139301_117144a 31.6890 10.1518 0.0 0.0
N_2177139302_54ab09e 31.6500 10.1908 0.0 0.0
N_2177139303_efded05 31.7470 9.1526 0.0 0.0
N_2177139304_d7f3097 31.8560 8.0547 0.0 0.0
N_2177139305_3901c37 31.8040 9.0956 0.0 0.0
N_2177139306_df2019d 31.8930 8.0177 0.0 0.0
N_2177139307_e20cdce 31.9530 7.4790 0.0 0.0
N_2177139401_0cf6f45 32.0510 7.6425 0.0 0.0
N_2177139402_629ce16 32.1510 6.2348 0.0 0.0
N_2177139501_6115d5a 32.9930 8.9842 0.0 0.0
N_2177139502_d65f90c 32.9540 8.9439 0.0 0.0
N_2177139503_0ba7192 32.9170 8.9929 0.0 0.0
N_2177139504_0943469 33.3260 8.5839 0.0 0.0
N_2177139505_600901b 33.6040 8.3612 0.0 0.0
N_2177139506_c89eb01 33.9740 7.4580 0.0 0.0
N_2177139507_d76ebd4 33.7940 8.1712 0.0 0.0
N_2177139508_9b614a8 34.0970 7.3350 0.0 0.0
N_2177139509_5547ef4 33.8840 8.0812 0.0 0.0
N_2177139510_1473ec8 32.6000 7.8339 0.0 0.0
N_2177139511_53167c7 34.2820 7.1500 0.0 0.0
N_2177139601_b4829d2 34.1940 7.3182 0.0 0.0
N_2177139602_0d3d523 34.2710 7.2412 0.0 0.0
N_2177139603_11e4afb 34.2190 7.2932 0.0 0.0
N_2177139604_0a2ab92 34.2360 7.2762 0.0 0.0
N_2177139605_b1e88f5 34.2910 7.1410 0.0 0.0
N_2177139701_5da39da 34.3000 8.2571 0.0 0.0
N_2177139702_b98b552 34.3250 8.2321 0.0 0.0
N_2177139703_68fe056 34.3790 7.6536 0.0 0.0
N_2177139704_9d1567b 34.4270 7.0050 0.0 0.0
N_2177139705_6a8cd90 34.4630 7.0233 0.0 0.0
N_2177139706_6ca9f4d 34.5230 6.9633 0.0 0.0
N_2177139708_53e21dd 34.5950 6.8370 0.0 0.0
N_2178050901_4aecf6b 25.9190 5.9249 0.0 0.0
N_2178050902_c2d14bf 25.9790 6.2005 0.0 0.0
N_2178060001_67fae07 26.0390 7.6753 0.0 0.0
N_2178060002_77899b9 26.0990 7.3330 0.0 0.0
N_2178060501_e394cd0 25.6630 5.1359 0.0 0.0
N_2178060502_e8688e2 25.6940 6.7768 0.0 0.0
N_2178060503_c589acb 25.7210 5.7608 0.0 0.0
N_2178060504_5e2ece1 25.7280 5.7538 0.0 0.0
N_2178060505_97be0bf 25.7500 6.0082 0.0 0.0
N_2178060506_7cefae9 25.8110 6.9159 0.0 0.0
N_2178060507_aae0f12 25.8500 6.8769 0.0 0.0
N_2178060701_bd43ca0 26.2390 8.3975 0.0 0.0
N_2178060702_f646f59 26.2500 10.0783 0.0 0.0
N_2178060703_5919755 26.2840 6.1480 0.0 0.0
N_2178060704_249c427 26.3460 6.0860 0.0 0.0
N_2178060801_df3786c 26.1250 5.3995 0.0 0.0
N_2178060802_0c6150d 26.1820 8.2500 0.0 0.0
N_2178061001_b94ad43 26.1580 6.2891 0.0 0.0
N_2178061002_8e08d21 26.2180 6.1830 0.0 0.0
N_2178061003_8c1596e 26.2600 6.1830 0.0 0.0
N_2178061004_b581cdf 26.8450 5.9033 0.0 0.0
N_2178061005_f4f0b4b 26.7580 5.9534 0.0 0.0
N_2178061006_90892a1 26.7000 6.0114 0.0 0.0
N_2178061007_c20846f 26.7150 5.9964 0.0 0.0
N_2178061101_cc9a0c9 26.9450 5.4870 0.0 0.0
N_2178061102_43afab6 26.9620 5.4700 0.0 0.0
N_2178061103_e485972 26.8880 5.8603 0.0 0.0
N_2178061104_cdf6e69 27.0190 6.0960 0.0 0.0
N_2178061105_0d261c6 27.1000 6.0150 0.0 0.0
N_2178061401_b6ce339 25.8870 5.6112 0.0 0.0
N_2178061402_5244c0e 25.9000 6.1317 0.0 0.0
N_2178061403_b57ddc5 26.0000 5.4320 0.0 0.0
N_2178061404_1fce456 26.1190 5.3130 0.0 0.0
N_2178061405_8740785 26.2720 5.2674 0.0 0.0
N_2178061501_7f1b715 25.8600 6.6638 0.0 0.0
N_2178061701_fa9dd51 26.3740 6.0586 0.0 0.0
N_2178061702_c604d0f 26.4420 13.9737 0.0 0.0
N_2178061801_0845d74 26.4900 13.9257 0.0 0.0
N_2178061802_f3fd114 26.6440 13.7717 0.0 0.0
N_2178061803_548614f 26.7370 12.8861 0.0 0.0
N_2178062101_8fd5473 27.2450 6.4525 0.0 0.0
N_2178062102_0d42e6f 27.6290 6.9660 0.0 0.0
N_2178062103_116bdb0 27.9870 10.8507 0.0 0.0
N_2178062104_db09550 28.0500 10.7877 0.0 0.0
N_2178062105_434ea65 28.1560 10.6817 0.0 0.0
N_2178062106_1b2ac25 28.3050 10.5327 0.0 0.0
N_2178062401_8ab14e6 26.4250 5.2943 0.0 0.0
N_2178062402_27b932f 26.5790 7.2976 0.0 0.0
N_2178062403_0915341 26.7320 8.4016 0.0 0.0
N_2178062801_0ad115f 26.8280 10.5603 0.0 0.0
N_2178062802_b2a3089 26.8990 12.1683 0.0 0.0
N_2178062803_e095bec 26.9950 12.0723 0.0 0.0
N_2178062804_f56c712 27.3200 8.6782 0.0 0.0
N_2178062805_e105b85 27.5210 7.8644 0.0 0.0
N_2178062806_625954f 27.5210 7.8644 0.0 0.0
N_2178063101_cc68203 28.5940 9.6755 0.0 0.0
N_2178063102_00cbc7b 28.7500 14.0532 0.0 0.0
N_2178063103_3c4a3b4 28.8500 13.9532 0.0 0.0
N_2178063201_6157a0e 28.9550 13.8482 0.0 0.0
N_2178063202_ab09453 29.2950 12.2610 0.0 0.0
N_2178063401_7c47769 26.8750 7.4546 0.0 0.0
N_2178063402_059775d 27.7000 6.3407 0.0 0.0
N_2178063403_51b2d90 27.7500 6.2907 0.0 0.0
N_2178063404_9b27eff 27.9010 5.9378 0.0 0.0
N_2178063405_370f254 27.9210 5.9178 0.0 0.0
N_2178063801_6949905 27.6280 11.2964 0.0 0.0
N_2178063802_d8d5761 27.9500 8.4142 0.0 0.0
N_2178063803_5e34d96 28.0750 8.2892 0.0 0.0
N_2178063804_209eae8 28.1050 8.2592 0.0 0.0
N_2178063805_40349b5 28.2820 11.2952 0.0 0.0
N_2178063806_f7c2e39 28.3210 11.2562 0.0 0.0
N_2178063807_551565c 28.3290 11.2482 0.0 0.0
N_2178063901_94065db 28.3290 11.2482 0.0 0.0
N_2178063902_f2f1429 28.5060 13.8514 0.0 0.0
N_2178063903_cdb117a 28.9180 13.8659 0.0 0.0
N_2178064101_f8ab148 32.6130 6.8190 0.0 0.0
N_2178064201_8547914 29.7000 12.2289 0.0 0.0
N_2178064202_ab1ca9a 30.8050 11.2588 0.0 0.0
N_2178064203_a7df924 31.1000 8.3888 0.0 0.0
N_2178064204_999c7af 32.1500 6.9615 0.0 0.0
N_2178064205_459fa6c 32.1650 6.9465 0.0 0.0
N_2178064206_fc8b62f 32.1730 6.9385 0.0 0.0
N_2178064207_36b74d4 32.2250 6.8562 0.0 0.0
N_2178064401_b5adc3e 28.1250 6.9889 0.0 0.0
N_2178064402_c124b45 28.9250 6.1889 0.0 0.0
N_2178064403_58b5e96 29.7530 5.3609 0.0 0.0
N_2178064404_6613274 29.8740 5.3196 0.0 0.0
N_2178064405_b67a57f 29.8940 5.2996 0.0 0.0
N_2178064407_a7172ce 30.0000 4.5967 0.0 0.0
N_2178064801_7493a9c 29.5630 9.9437 0.0 0.0
N_2178064802_c7ec901 29.5630 7.8690 0.0 0.0
N_2178064901_017b3ff 29.1510 11.9366 0.0 0.0
N_2178064902_e794c2a 29.4270 13.0773 0.0 0.0
N_2178064903_1675f0d 29.5260 9.9807 0.0 0.0
N_2178064904_6becb71 30.1730 7.2590 0.0 0.0
N_2178064905_a628cda 30.4560 7.2314 0.0 0.0
N_2178065101_12e0eb8 32.7650 12.9825 0.0 0.0
N_2178065102_05a6a6c 33.1530 12.7466 0.0 0.0
N_2178065103_6419c9f 33.2280 12.6716 0.0 0.0
N_2178065104_177dddf 33.5410 13.3000 0.0 0.0
N_2178065105_e89195e 33.7250 11.8670 0.0 0.0
N_2178065106_f61152f 33.8250 11.5998 0.0 0.0
N_2178065801_4afd0ae 31.2050 13.3933 0.0 0.0
N_2178065802_2d2bd74 31.3620 13.2363 0.0 0.0
N_2178065803_3d7e692 31.4210 13.1773 0.0 0.0
N_2178065804_0c9e836 31.4450 12.1421 0.0 0.0
N_2178065805_ba7ce10 31.4730 12.1141 0.0 0.0
N_2178065806_b696b39 31.4880 12.0991 0.0 0.0
N_2178065901_cda9622 30.5860 11.9635 0.0 0.0
N_2178065902_f13365a 30.6310 11.9185 0.0 0.0
N_2178065903_aa16c0a 30.7140 10.7180 0.0 0.0
N_2178065904_e21d0b9 30.7980 10.6340 0.0 0.0
N_2178065905_1bf7264 30.9620 11.2979 0.0 0.0
N_2178065906_6db6ce8 31.0980 11.1619 0.0 0.0
N_2178066101_7bfd3e4 34.8040 10.6208 0.0 0.0
N_2178066102_f92504e 34.8380 8.2363 0.0 0.0
N_2178066103_5392eb8 34.9850 8.0893 0.0 0.0
N_2178066104_9396ee2 35.2000 8.7975 0.0 0.0
N_2178066801_61d72f0 31.5420 13.5577 0.0 0.0
N_2178066802_f286a54 31.5830 14.9591 0.0 0.0
N_2178067101_c78390b 35.5000 16.4769 0.0 0.0
N_2178067501_9b6e573 35.2500 10.9669 0.0 0.0
N_2178067601_860c9d0 35.2000 8.0204 0.0 0.0
N_2178067701_78e02b3 33.0000 10.1070 0.0 0.0
N_2178067702_40e47b0 34.2000 9.0119 0.0 0.0
N_2178068701_6c28667 34.5000 9.6916 0.0 0.0
N_2178070401_c5fea1c 26.1690 6.6806 0.0 0.0
N_2178070402_dfd95cf 26.2470 6.1300 0.0 0.0
N_2178070403_198df75 26.2340 6.1430 0.0 0.0
N_2178070404_03dea4f 26.2570 6.1200 0.0 0.0
N_2178070501_37882bd 26.2990 6.7890 0.0 0.0
N_2178070502_26d73f0 26.3340 5.9693 0.0 0.0
N_2178070503_3e7dc18 26.3640 5.9393 0.0 0.0
N_2178070504_982762e 26.4290 6.6882 0.0 0.0
N_2178070505_3139bed 26.4950 6.3036 0.0 0.0
N_2178071501_32364c6 26.5600 6.1629 0.0 0.0
N_2178071502_e140f1c 26.6260 7.8127 0.0 0.0
N_2178071503_2b0ff7e 26.6540 7.7847 0.0 0.0
N_2178071601_1a64756 26.6910 7.1697 0.0 0.0
N_2178071602_6f47484 26.7570 6.9641 0.0 0.0
N_2178071603_052c4c2 26.8180 8.0137 0.0 0.0
N_2178072601_7eec607 26.8820 7.0752 0.0 0.0
N_2178072602_5a2aefc 26.9110 7.0462 0.0 0.0
N_2178072603_5342083 27.0070 5.9997 0.0 0.0
N_2178072604_83f2fb6 27.1320 5.8747 0.0 0.0
N_2178072605_d00f175 27.2140 8.9782 0.0 0.0
N_2178072606_d4740b5 27.3520 8.8402 0.0 0.0
N_2178072701_b129d6c 27.4870 13.9003 0.0 0.0
N_2178072702_bea2c08 27.5510 13.8363 0.0 0.0
N_2178072703_39a849f 27.6130 15.1089 0.0 0.0
N_2178072704_a387853 27.7430 9.1722 0.0 0.0
N_2178073701_c00b4fd 27.8740 9.0412 0.0 0.0
N_2178073702_fbb6321 28.6620 8.2644 0.0 0.0
N_2178073801_96019fe 28.0690 8.7476 0.0 0.0
N_2178074701_421b0de 28.8740 8.0524 0.0 0.0
N_2178074702_b849dcc 29.1360 12.5827 0.0 0.0
N_2178074703_c29683a 29.5000 9.9580 0.0 0.0
N_2178080701_08cdccb 26.2010 5.7119 0.0 0.0
N_2178081802_b93898f 26.3610 6.8142 0.0 0.0
N_2178083901_d250cef 26.4640 6.9680 0.0 0.0
N_2178090301_964e924 26.3710 5.0403 0.0 0.0
N_2178090401_a9f5f19 26.3560 8.0689 0.0 0.0
N_2178090401_bff316c 26.8410 5.6086 0.0 0.0
N_2178090402_d33e63d 26.3640 5.0473 0.0 0.0
N_2178090601_ced500e 27.0750 9.4970 0.0 0.0
N_2178090602_7bebcd1 27.0900 9.7970 0.0 0.0
N_2178090603_8f6f659 27.1100 9.0036 0.0 0.0
N_2178091301_1cdf7f0 26.3790 5.1112 0.0 0.0
N_2178091302_10760ce 26.3860 6.0460 0.0 0.0
N_2178091303_98bed11 26.3940 8.4740 0.0 0.0
N_2178091304_3da4072 26.4010 6.7922 0.0 0.0
N_2178091401_2e1b624 26.8320 5.5327 0.0 0.0
N_2178091402_ddd4082 26.8130 5.5517 0.0 0.0
N_2178091403_9e5afe8 26.7830 6.8810 0.0 0.0
N_2178091501_b18bfb9 26.7580 8.8990 0.0 0.0
N_2178091502_97cbb1c 26.7390 21.5748 0.0 0.0
N_2178091503_3886881 26.7240 12.6998 0.0 0.0
N_2178091601_de37dd4 27.1300 8.8385 0.0 0.0
N_2178091602_5c6a729 27.1490 9.5034 0.0 0.0
N_2178091603_4f41d55 27.1690 9.2112 0.0 0.0
N_2178091604_840471a 27.1890 3.3275 0.0 0.0
N_2178092301_3b7b057 26.4090 6.0379 0.0 0.0
N_2178092302_0a01280 26.4250 4.0070 0.0 0.0
N_2178092303_e65b91d 26.4410 6.7708 0.0 0.0
N_2178092501_0d69b63 26.7020 13.1763 0.0 0.0
N_2178092601_3ee32da 27.4260 3.7829 0.0 0.0
N_2178092601_1dbb587 26.6870 8.1020 0.0 0.0
N_2178092602_a8f8b71 27.4280 3.7809 0.0 0.0
N_2178092602_4494b8e 26.6580 3.7817 0.0 0.0
N_2178092603_8145c43 27.4320 3.7769 0.0 0.0
N_2178092603_574fa98 26.6580 3.7817 0.0 0.0
N_2178092604_8155009 26.5870 9.4235 0.0 0.0
N_2178092701_eb996ff 26.5530 9.4157 0.0 0.0
N_2178092702_321f9eb 26.5190 9.4497 0.0 0.0
N_2178093001_c31c928 26.4880 6.9440 0.0 0.0
N_2178093002_d850120 26.5110 6.7918 0.0 0.0
N_2178093003_a4f2159 26.5350 6.6322 0.0 0.0
N_2178093004_c107145 26.5420 8.0739 0.0 0.0
N_2178093005_cb8b82c 26.5570 7.8750 0.0 0.0
N_2178093006_d9cf80e 26.5810 7.9949 0.0 0.0
N_2178093007_b436a06 26.5900 7.9859 0.0 0.0
N_2178093008_d080a52 26.6090 8.0860 0.0 0.0
N_2178093301_97ce8dd 26.4410 3.9070 0.0 0.0
N_2178093302_2f6ee37 26.4740 3.9580 0.0 0.0
N_2178093303_a4002d9 26.4910 3.9410 0.0 0.0
N_2178093304_cf85551 26.5070 5.5540 0.0 0.0
N_2178093601_5fb1741 26.3990 13.1209 0.0 0.0
N_2178093701_6724a2e 26.4930 9.1581 0.0 0.0
N_2178093702_6ca8b13 26.4460 9.2051 0.0 0.0
N_2178093703_af941b3 26.3530 19.9536 0.0 0.0
N_2178093704_a83258e 26.3000 20.2591 0.0 0.0
N_2178093705_c15b324 26.2630 21.1192 0.0 0.0
N_2178094101_46a844f 26.6320 8.2539 0.0 0.0
N_2178094102_70c6ad2 26.6590 8.5811 0.0 0.0
N_2178094103_a586fdb 26.6790 8.0178 0.0 0.0
N_2178094104_ae404ff 26.7000 8.4783 0.0 0.0
N_2178094201_6745211 26.5360 4.4771 0.0 0.0
N_2178094202_e364222 26.7110 3.7752 0.0 0.0
N_2178094203_6394d48 26.7260 7.7866 0.0 0.0
N_2178094204_2cf8f75 26.7380 7.7746 0.0 0.0
N_2178094301_903ee50 26.5240 4.9471 0.0 0.0
N_2178094701_5b75ceb 26.2230 23.3136 0.0 0.0
N_2178094801_b410b6d 26.1860 18.7770 0.0 0.0
N_2178094802_5152d0b 26.1580 29.2135 0.0 0.0
N_2178094803_db82ef6 26.1270 23.3110 0.0 0.0
N_2178094804_007b467 26.1000 14.8994 0.0 0.0
N_2178094901_4a32f05 26.0730 13.3643 0.0 0.0
N_2178095201_61369f4 26.7540 7.1670 0.0 0.0
N_2178095202_ba937f8 26.7510 5.1921 0.0 0.0
N_2178095203_d91aa39 26.7290 5.2141 0.0 0.0
N_2178095204_6c283db 26.7440 5.1991 0.0 0.0
N_2178095205_c306b16 26.7360 5.2071 0.0 0.0
N_2178095206_720109a 26.8380 8.7557 0.0 0.0
N_2178095901_d5047eb 26.0520 21.3705 0.0 0.0
N_2178095902_9aff3eb 26.0390 9.5164 0.0 0.0
N_2178095903_c76a72c 26.0280 14.5173 0.0 0.0
N_2178095904_2b321de 26.0220 14.5233 0.0 0.0
N_2178096201_75201d3 26.9150 6.1493 0.0 0.0
N_2178096202_3ba82b7 26.9930 8.9600 0.0 0.0
N_2178097101_721cb2a 27.0960 9.0367 0.0 0.0
N_2178097102_a49930e 27.1780 8.6614 0.0 0.0
N_2178098101_738383f 27.3190 9.8493 0.0 0.0
N_2178098102_e5dd26c 27.2860 8.7688 0.0 0.0
N_2178098103_de826ad 27.3560 11.1923 0.0 0.0
N_2178099001_045a5dd 27.4820 14.5149 0.0 0.0
N_2178099002_e5fdf11 27.5430 12.3506 0.0 0.0
N_2178099101_7beecac 27.4230 14.1899 0.0 0.0
N_2178100701_8adebb8 26.8780 6.0327 0.0 0.0
N_2178100701_3294ddd 26.8780 6.0327 0.0 0.0
N_2178100702_f51151a 27.3170 4.6048 0.0 0.0
N_2178100702_7d3fe59 27.3170 4.6048 0.0 0.0
N_2178100703_eda88eb 26.8930 6.0177 0.0 0.0
N_2178100703_587e960 26.8930 6.0177 0.0 0.0
N_2178100704_df577fd 26.9000 6.0107 0.0 0.0
N_2178100704_c4a3d10 26.9000 6.0107 0.0 0.0
N_2178100705_c02407d 27.2770 5.8538 0.0 0.0
N_2178100705_cab75ce 27.2770 5.8538 0.0 0.0
N_2178100706_c7d953c 28.0270 2.9328 0.0 0.0
N_2178100706_f73e5eb 28.0270 2.9328 0.0 0.0
N_2178100707_b77dfe7 28.0060 3.6508 0.0 0.0
N_2178100707_62af741 28.0060 3.6508 0.0 0.0
N_2178100708_0eb2976 27.2830 4.3738 0.0 0.0
N_2178100708_d553cbb 27.2830 4.3738 0.0 0.0
N_2178100709_a81b26d 27.3010 4.0628 0.0 0.0
N_2178100709_58ad8a4 27.3010 4.0628 0.0 0.0
N_2178100801_06d52a4 27.3580 10.9941 0.0 0.0
N_2178100801_2738934 27.3580 10.9941 0.0 0.0
N_2178100802_274629a 28.0480 3.4244 0.0 0.0
N_2178100802_d3fea7d 28.0480 3.4244 0.0 0.0
N_2178100803_92bdcce 28.0890 8.8679 0.0 0.0
N_2178100803_a424f97 28.0890 8.8679 0.0 0.0
N_2178100804_f3b36e8 28.0680 5.4354 0.0 0.0
N_2178100804_b2800c9 28.0680 5.4354 0.0 0.0
N_2178100901_926b13c 28.1100 10.2605 0.0 0.0
N_2178100901_921cb2b 28.1100 10.2605 0.0 0.0
N_2178100902_8098d2d 28.1890 9.6105 0.0 0.0
N_2178100902_0380425 28.1890 9.6105 0.0 0.0
N_2178100903_82f8c0c 28.2980 8.7802 0.0 0.0
N_2178100903_e9ddff4 28.2980 8.7802 0.0 0.0
N_2178100904_efd6812 28.1910 9.4909 0.0 0.0
N_2178100904_77910fe 28.1910 9.4909 0.0 0.0
N_2178101701_55e404f 27.3270 3.1050 0.0 0.0
N_2178101701_c5d3bb1 27.3270 3.1050 0.0 0.0
N_2178101801_c166fb4 27.3480 4.3790 0.0 0.0
N_2178101801_3cc3a8f 27.3480 4.3790 0.0 0.0
N_2178101802_3239ae1 27.3730 4.9872 0.0 0.0
N_2178101802_e83e3c5 27.3730 4.9872 0.0 0.0
N_2178101803_7679e6e 27.4040 5.4539 0.0 0.0
N_2178101803_8a3c00c 27.4040 5.4539 0.0 0.0
N_2178101804_155c727 27.4390 5.5881 0.0 0.0
N_2178101804_8726200 27.4390 5.5881 0.0 0.0
N_2178102801_07c562e 27.4630 5.9690 0.0 0.0
N_2178102801_303d5c1 27.4630 5.9690 0.0 0.0
N_2178102901_b4a2b4d 27.4890 5.4556 0.0 0.0
N_2178102901_735daf4 27.4890 5.4556 0.0 0.0
N_2178102902_2d8f119 27.5610 5.0580 0.0 0.0
N_2178102902_1dabbba 27.5610 5.0580 0.0 0.0
N_2178102903_ebd2f0c 27.5440 5.3485 0.0 0.0
N_2178102903_627eb88 27.5440 5.3485 0.0 0.0
N_2178102904_38a0d0b 27.5180 5.4646 0.0 0.0
N_2178102904_540b5c8 27.5180 5.4646 0.0 0.0
N_2178105001_ea0aef5 26.0150 24.4000 0.0 0.0
N_2178105002_98f23dd 26.0020 24.4130 0.0 0.0
N_2178105003_eeb4712 25.9930 32.2824 0.0 0.0
N_2178106001_9489402 25.9850 26.4979 0.0 0.0
N_2178106002_623bab9 25.9780 45.2863 0.0 0.0
N_2178106003_6f0a398 25.9660 31.4415 0.0 0.0
N_2178106005_5ef5346 25.9560 31.4515 0.0 0.0
N_2178106006_eed1492 25.9560 20.5449 0.0 0.0
N_2178107101_e67eda4 25.9470 16.5604 0.0 0.0
N_2178107102_45a149e 25.9390 12.0347 0.0 0.0
N_2178107103_cde38b0 25.9300 12.2225 0.0 0.0
N_2178108101_7c5f7c6 25.9260 9.3312 0.0 0.0
N_2178108102_9c593ad 25.9170 8.3830 0.0 0.0
N_2178108103_20d931a 25.9080 8.3920 0.0 0.0
N_2178108104_42e08d5 25.8960 8.6389 0.0 0.0
N_2178109001_e1cdea4 25.8890 10.1797 0.0 0.0
N_2178109002_fe76106 25.8800 10.3021 0.0 0.0
N_2178109101_8ea74a8 25.8730 9.4700 0.0 0.0
N_2178109102_e06be52 25.8640 6.7218 0.0 0.0
N_2178110001_98124db 28.4030 8.6663 0.0 0.0
N_2178110001_8dd16bb 28.4030 8.6663 0.0 0.0
N_2178110002_71f8340 28.5060 8.1355 0.0 0.0
N_2178110002_f67c78d 28.5060 8.1355 0.0 0.0
N_2178110003_56d63da 28.6130 6.9987 0.0 0.0
N_2178110003_8368c0d 28.6130 6.9987 0.0 0.0
N_2178110101_0f6ed1c 28.9120 17.8751 0.0 0.0
N_2178110101_8ebbb5c 28.9120 17.8751 0.0 0.0
N_2178110102_4b0291a 28.8070 15.4037 0.0 0.0
N_2178110102_b4d724c 28.8070 15.4037 0.0 0.0
N_2178110103_1e42068 28.7060 11.7559 0.0 0.0
N_2178110103_a4034f5 28.7060 11.7559 0.0 0.0
N_2178110104_84c42e1 28.6210 8.1861 0.0 0.0
N_2178110104_13c0bf3 28.6210 8.1861 0.0 0.0
N_2178110105_e68d44f 28.6180 6.9937 0.0 0.0
N_2178110105_c645b76 28.6180 6.9937 0.0 0.0
N_2178110201_4c67b6a 30.3830 9.4012 0.0 0.0
N_2178110201_66e9365 30.3830 9.4012 0.0 0.0
N_2178110202_502912b 30.0330 8.0427 0.0 0.0
N_2178110202_1027f63 30.0330 8.0427 0.0 0.0
N_2178110203_62bf6c1 29.0140 15.6661 0.0 0.0
N_2178110203_0b13830 29.0140 15.6661 0.0 0.0
N_2178110204_54d0a29 29.4340 9.5925 0.0 0.0
N_2178110204_d7e975b 29.4340 9.5925 0.0 0.0
N_2178110301_c1d0398 30.5830 10.5429 0.0 0.0
N_2178110301_9878ac0 30.5830 10.5429 0.0 0.0
N_2178110302_6a6ecca 30.7340 12.9108 0.0 0.0
N_2178110302_268540e 30.7340 12.9108 0.0 0.0
N_2178110303_84f3270 30.8870 12.5450 0.0 0.0
N_2178110303_ab41279 30.8870 12.5450 0.0 0.0
N_2178110304_30f2f8c 27.8840 9.2174 0.0 0.0
N_2178110304_b22c41c 27.8840 9.2174 0.0 0.0
N_2178110401_35302c8 31.1560 11.7431 0.0 0.0
N_2178110401_ea8cf66 31.1560 11.7431 0.0 0.0
N_2178110402_2c52105 31.5360 9.6406 0.0 0.0
N_2178110402_b671ef1 31.5360 9.6406 0.0 0.0
N_2178110403_067c9f4 31.8090 8.6230 0.0 0.0
N_2178110403_2127a2a 31.8090 8.6230 0.0 0.0
N_2178110501_018f3b7 32.4210 8.5296 0.0 0.0
N_2178110501_bcda39c 32.4210 8.5296 0.0 0.0
N_2178110502_bd591ad 32.8080 7.1669 0.0 0.0
N_2178110502_286f4da 32.8080 7.1669 0.0 0.0
N_2178110801_0007b78 43.5300 13.9020 0.0 0.0
N_2178110901_a5f4a78 43.7030 11.5746 0.0 0.0
N_2178110902_f84244f 44.0790 6.5820 0.0 0.0
N_2178110903_5d51aef 43.9020 6.6620 0.0 0.0
N_2178111101_39f4a99 27.6630 7.2548 0.0 0.0
N_2178111101_9754879 27.6630 7.2548 0.0 0.0
N_2178111102_41b0d2e 27.6750 9.9021 0.0 0.0
N_2178111102_2926ba7 27.6750 9.9021 0.0 0.0
N_2178111103_fc85f10 27.6490 5.4690 0.0 0.0
N_2178111103_705c8be 27.6490 5.4690 0.0 0.0
N_2178111201_46b7df5 27.7210 12.1722 0.0 0.0
N_2178111201_cd67640 27.7210 12.1722 0.0 0.0
N_2178111301_aede517 27.9600 12.1355 0.0 0.0
N_2178111301_1671a84 27.9600 12.1355 0.0 0.0
N_2178111302_d336952 27.8280 14.8867 0.0 0.0
N_2178111302_ab99daa 27.8280 14.8867 0.0 0.0
N_2178111303_d89c791 27.8110 14.9037 0.0 0.0
N_2178111303_296406d 27.8110 14.9037 0.0 0.0
N_2178111501_980022c 32.8740 7.5895 0.0 0.0
N_2178111501_ebbe991 32.8740 7.5895 0.0 0.0
N_2178111502_696923d 32.9390 8.7741 0.0 0.0
N_2178111502_129332a 32.9390 8.7741 0.0 0.0
N_2178111503_7416d92 33.0050 8.0556 0.0 0.0
N_2178111503_4fa8bfa 33.0050 8.0556 0.0 0.0
N_2178111504_904363b 33.0710 6.6661 0.0 0.0
N_2178111504_db45834 33.0710 6.6661 0.0 0.0
N_2178112001_014b0b7 27.6140 31.1367 0.0 0.0
N_2178112001_374f33a 27.6140 31.1367 0.0 0.0
N_2178112002_4d325e0 27.5960 25.3183 0.0 0.0
N_2178112002_d735985 27.5960 25.3183 0.0 0.0
N_2178112003_055a6d2 27.5810 9.7553 0.0 0.0
N_2178112003_9da1bc7 27.5810 9.7553 0.0 0.0
N_2178112004_557bbcd 27.5750 6.1157 0.0 0.0
N_2178112004_ec148eb 27.5750 6.1157 0.0 0.0
N_2178112101_22ba71c 27.6590 5.4590 0.0 0.0
N_2178112101_3ccb77e 27.6590 5.4590 0.0 0.0
N_2178112102_4fc5cf5 27.6380 17.8123 0.0 0.0
N_2178112102_80bb997 27.6380 17.8123 0.0 0.0
N_2178112103_00787c6 27.6760 5.4420 0.0 0.0
N_2178112103_3df4b98 27.6760 5.4420 0.0 0.0
N_2178112104_18b4a47 27.6990 5.8091 0.0 0.0
N_2178112104_bd30ff4 27.6990 5.8091 0.0 0.0
N_2178112105_5f7df1a 27.7190 5.7891 0.0 0.0
N_2178112105_a6f6a27 27.7190 5.7891 0.0 0.0
N_2178112106_6732a0e 27.7310 5.5461 0.0 0.0
N_2178112106_444ec74 27.7310 5.5461 0.0 0.0
N_2178112401_c91121e 28.0510 13.0278 0.0 0.0
N_2178112401_a1b78ee 28.0510 13.0278 0.0 0.0
N_2178112402_67c9944 28.1220 12.0544 0.0 0.0
N_2178112402_0e245c0 28.1220 12.0544 0.0 0.0
N_2178112501_0bd4217 33.1360 7.3855 0.0 0.0
N_2178112501_1c81871 33.1360 7.3855 0.0 0.0
N_2178112502_f25eca4 33.2020 6.5479 0.0 0.0
N_2178112502_d093b2e 33.2020 6.5479 0.0 0.0
N_2178112503_9b8d9f2 33.2670 6.4829 0.0 0.0
N_2178112503_3a722c8 33.2670 6.4829 0.0 0.0
N_2178113101_fb211e1 27.7380 5.5391 0.0 0.0
N_2178113101_cc43ff2 27.7380 5.5391 0.0 0.0
N_2178113102_10c73e1 27.7500 14.1561 0.0 0.0
N_2178113102_1febbbe 27.7500 14.1561 0.0 0.0
N_2178113103_a59bc88 27.7630 14.1431 0.0 0.0
N_2178113103_d346a54 27.7630 14.1431 0.0 0.0
N_2178113501_e2a11ed 33.3330 7.7573 0.0 0.0
N_2178113501_e11a285 33.3330 7.7573 0.0 0.0
N_2178113502_4b15efd 28.2260 13.7980 0.0 0.0
N_2178113502_ae0e374 28.2260 13.7980 0.0 0.0
N_2178113503_a24ebbc 33.3990 6.5212 0.0 0.0
N_2178113503_a4ea40a 33.3990 6.5212 0.0 0.0
N_2178113504_4c73cb5 33.4640 5.9680 0.0 0.0
N_2178113504_0daf97f 33.4640 5.9680 0.0 0.0
N_2178113505_69c912c 33.5300 6.4436 0.0 0.0
N_2178113505_ba8c22c 33.5300 6.4436 0.0 0.0
N_2178114501_91100d6 28.3070 13.0247 0.0 0.0
N_2178114501_e39daf8 28.3070 13.0247 0.0 0.0
N_2178114502_14fec3a 28.3340 12.9977 0.0 0.0
N_2178114502_e780fec 28.3340 12.9977 0.0 0.0
N_2178114601_6929bf5 33.5950 6.5484 0.0 0.0
N_2178114601_9f6074e 33.5950 6.5484 0.0 0.0
N_2178114602_4a3b666 33.6610 8.3399 0.0 0.0
N_2178114602_1fc5177 33.6610 8.3399 0.0 0.0
N_2178114603_d4944ed 33.7270 8.1792 0.0 0.0
N_2178114603_ede3164 33.7270 8.1792 0.0 0.0
N_2178115601_e403ccf 33.7920 9.3027 0.0 0.0
N_2178115601_4dd8f3b 33.7920 9.3027 0.0 0.0
N_2178115602_fa842de 33.8180 9.6514 0.0 0.0
N_2178115602_1fe49a9 33.8180 9.6514 0.0 0.0
N_2178115603_b892cc6 33.8440 9.7192 0.0 0.0
N_2178115603_5657f7c 33.8440 9.7192 0.0 0.0
N_2178115604_ee94906 33.8690 5.9684 0.0 0.0
N_2178115604_9b0c57d 33.8690 5.9684 0.0 0.0
N_2178115901_b500719 35.5000 13.2012 0.0 0.0
N_2178115901_6acf95a 35.5000 13.2012 0.0 0.0
N_2178115902_2ed64c7 35.5000 16.0846 0.0 0.0
N_2178115902_9f02e45 35.5000 16.0846 0.0 0.0
N_2178116601_0d9c21d 33.8950 6.9708 0.0 0.0
N_2178116601_7008a6f 33.8950 6.9708 0.0 0.0
N_2178116602_e6c7d80 33.9210 7.0816 0.0 0.0
N_2178116602_7620d15 33.9210 7.0816 0.0 0.0
N_2178116603_564a15a 33.9920 6.4400 0.0 0.0
N_2178116603_8db2c1a 33.9920 6.4400 0.0 0.0
N_2178116701_8a528ff 34.4000 6.6359 0.0 0.0
N_2178116701_6558e5b 34.4000 6.6359 0.0 0.0
N_2178116702_e7021a5 34.3500 6.4892 0.0 0.0
N_2178116702_8bdfb42 34.3500 6.4892 0.0 0.0
N_2178116801_66ff251 34.9000 7.8062 0.0 0.0
N_2178116801_ad24d3d 34.9000 7.8062 0.0 0.0
N_2178116901_9df77ec 35.8000 12.2003 0.0 0.0
N_2178116901_661508b 35.3070 12.6933 0.0 0.0
N_2178116902_747ba25 35.8000 12.2003 0.0 0.0
N_2178116902_ccc133c 35.2900 12.7103 0.0 0.0
N_2178116903_6069617 35.3500 7.7413 0.0 0.0
N_2178116903_f1332b8 35.1410 7.9503 0.0 0.0
N_2178116904_0ed3f85 35.7000 7.3913 0.0 0.0
N_2178116904_22c8a6f 35.2140 7.8773 0.0 0.0
N_2178117601_2fa1ae0 34.1220 7.6546 0.0 0.0
N_2178117601_335e55a 34.1220 7.6546 0.0 0.0
N_2178117701_d9d067c 34.2270 7.6472 0.0 0.0
N_2178117701_16a4cc8 34.2270 7.6472 0.0 0.0
N_2178117702_b0e2be3 34.2440 13.3711 0.0 0.0
N_2178117702_8b73d9b 34.2440 13.3711 0.0 0.0
N_2178118701_df4be3e 34.3420 12.8166 0.0 0.0
N_2178118701_675db95 34.3420 12.8166 0.0 0.0
N_2178118702_a9bfca8 34.6420 8.1746 0.0 0.0
N_2178118702_d2d36e4 34.6420 8.1746 0.0 0.0
N_2178118703_a114f9f 34.8460 7.1069 0.0 0.0
N_2178118703_1a4a38f 34.8460 7.1069 0.0 0.0
N_2178118704_528f995 35.0490 6.9748 0.0 0.0
N_2178118704_eb56592 35.0490 6.9748 0.0 0.0
N_2178119701_3e6df10 35.2090 7.2230 0.0 0.0
N_2178119701_bc98955 35.2090 7.2230 0.0 0.0
N_2178123901_11b7871 37.7070 11.9571 0.0 0.0
N_2178123902_de7f838 37.8850 11.7791 0.0 0.0
N_2178123903_a1c155d 38.0610 8.1161 0.0 0.0
N_2178124101_4dd2ca1 42.7000 8.5628 0.0 0.0
N_2178124101_444f306 42.7000 8.5628 0.0 0.0
N_2178124201_314fd92 43.6000 10.4903 0.0 0.0
N_2178124201_2c95bc4 43.6000 10.4903 0.0 0.0
N_2178124202_a4eab2a 43.1000 7.4901 0.0 0.0
N_2178124202_db361d0 43.1000 7.4901 0.0 0.0
N_2178124801_878a6a4 38.6050 8.0242 0.0 0.0
N_2178124802_f408b15 38.7870 10.4737 0.0 0.0
N_2178124901_5a44ae8 38.2430 9.0683 0.0 0.0
N_2178124902_d1838c7 38.4250 8.8863 0.0 0.0
N_2178125001_c1f162c 37.6000 8.5775 0.0 0.0
N_2178125001_e599316 37.6000 8.5775 0.0 0.0
N_2178125002_b97586a 37.6000 8.5775 0.0 0.0
N_2178125002_912d138 37.6000 8.5775 0.0 0.0
N_2178125003_7f7867c 37.3000 9.8629 0.0 0.0
N_2178125003_be1c642 37.3000 9.8629 0.0 0.0
N_2178125004_4a9bade 38.0000 10.6169 0.0 0.0
N_2178125004_609b73e 38.0000 10.6169 0.0 0.0
N_2178125005_ee77058 36.0000 11.7045 0.0 0.0
N_2178125005_f30a34b 36.0000 11.7045 0.0 0.0
N_2178125101_6f66338 42.2000 8.0058 0.0 0.0
N_2178125101_1b920ba 42.2000 8.0058 0.0 0.0
N_2178125102_054c9c3 42.1000 7.1045 0.0 0.0
N_2178125102_fbc041d 42.1000 7.1045 0.0 0.0
N_2178125103_0cc0954 42.1000 9.4356 0.0 0.0
N_2178125103_00ce888 42.1000 9.4356 0.0 0.0
N_2178130401_6e132d1 32.1830 6.2028 0.0 0.0
N_2178130402_e315915 32.5470 7.8869 0.0 0.0
N_2178130403_7e3d0cf 32.2270 6.5245 0.0 0.0
N_2178130404_181d078 32.6140 6.9122 0.0 0.0
N_2178130405_66bac5c 32.7410 7.9858 0.0 0.0
N_2178130406_f8e2edb 32.8120 7.2967 0.0 0.0
N_2178130407_b538b97 32.8630 7.8638 0.0 0.0
N_2178130408_e9488fc 33.0310 7.0777 0.0 0.0
N_2178130501_d324718 34.8690 7.9199 0.0 0.0
N_2178130601_18f14ca 34.3000 8.0453 0.0 0.0
N_2178130602_748ecf5 34.3260 8.1848 0.0 0.0
N_2178130603_f65ed23 34.3960 8.1148 0.0 0.0
N_2178130604_6aebf7a 34.5020 8.0088 0.0 0.0
N_2178130605_00f2bcd 34.6200 8.2926 0.0 0.0
N_2178130606_3ec74b3 34.6570 8.2556 0.0 0.0
N_2178130607_32f02c8 34.7110 8.2016 0.0 0.0
N_2178130608_6f3a7c4 34.8440 7.7387 0.0 0.0
N_2178130609_3bad5f2 34.9190 7.6637 0.0 0.0
N_2178130701_dbcacd0 34.6500 7.2396 0.0 0.0
N_2178130702_b5f026c 34.8720 7.8537 0.0 0.0
N_2178130703_2305ba4 34.9040 7.8217 0.0 0.0
N_2178130704_7fb70ca 34.6990 7.3145 0.0 0.0
N_2178130705_7a8a6da 34.9460 7.7797 0.0 0.0
N_2178130706_cfb6f4f 34.7530 7.2605 0.0 0.0
N_2178130707_648e7d1 34.9860 7.7397 0.0 0.0
N_2178130708_cfaa95c 35.0140 7.2684 0.0 0.0
N_2178130709_3a526ab 35.0840 8.3480 0.0 0.0
N_2178130710_20dcd49 35.1240 8.3080 0.0 0.0
N_2178130711_065583e 35.2210 8.2512 0.0 0.0
N_2178130801_8328427 35.3000 7.8728 0.0 0.0
N_2178130802_4228985 35.3660 7.8068 0.0 0.0
N_2178130803_5c5926a 35.4290 7.7438 0.0 0.0
N_2178131201_722f590 34.1380 6.9445 0.0 0.0
N_2178131202_e8fed4b 34.4050 6.6775 0.0 0.0
N_2178131301_a04f5c6 33.1210 11.0907 0.0 0.0
N_2178131302_3617d8f 33.3810 10.8307 0.0 0.0
N_2178131303_b42036d 33.6040 8.6827 0.0 0.0
N_2178131304_d5a6daa 33.8710 8.6406 0.0 0.0
N_2178131401_f32ba30 33.1170 7.7439 0.0 0.0
N_2178131402_ac0bc75 33.3220 7.5389 0.0 0.0
N_2178131403_beafdc7 33.6850 7.1639 0.0 0.0
N_2178131404_14648c2 33.7150 7.1339 0.0 0.0
N_2178131405_dae00a1 33.9530 6.8839 0.0 0.0
N_2178131406_7a132f7 34.1350 6.7019 0.0 0.0
N_2178131601_aeb4046 34.9490 6.9784 0.0 0.0
N_2178131602_7ffbce1 34.9820 6.9454 0.0 0.0
N_2178131603_94c6628 35.0650 6.8624 0.0 0.0
N_2178131604_9da7595 35.3080 7.2700 0.0 0.0
N_2178131605_d56dbf1 35.4320 8.0572 0.0 0.0
N_2178131606_18baa04 35.4460 8.0432 0.0 0.0
N_2178131607_4ed066c 35.4770 8.0122 0.0 0.0
N_2178131608_8b5a44d 35.6940 8.2424 0.0 0.0
N_2178131801_ea25dbc 35.4940 7.3539 0.0 0.0
N_2178131802_8c917be 35.5640 7.2839 0.0 0.0
N_2178131803_b1f1e50 35.6430 6.8425 0.0 0.0
N_2178131804_297ab5f 35.6540 6.8315 0.0 0.0
N_2178131805_d3e12ff 35.7260 8.1348 0.0 0.0
N_2178131806_520c96c 35.7360 8.1248 0.0 0.0
N_2178131902_06a940a 35.9440 8.1499 0.0 0.0
N_2178132001_03e9cfa 36.2900 12.5526 0.0 0.0
N_2178132101_62e4040 35.2090 8.7614 0.0 0.0
N_2178132102_d07ddd8 35.4780 4.9540 0.0 0.0
N_2178132103_f5eb89f 35.7470 7.9219 0.0 0.0
N_2178132104_ee133c0 36.0160 11.5126 0.0 0.0
N_2178132201_b572730 34.6740 9.6740 0.0 0.0
N_2178132202_72f17b4 34.9420 11.2551 0.0 0.0
N_2178132401_56e0479 34.2260 7.5364 0.0 0.0
N_2178132402_18f6994 34.2900 8.1354 0.0 0.0
N_2178132403_e67adf6 34.4620 7.3004 0.0 0.0
N_2178132404_3f81905 34.4790 7.9530 0.0 0.0
N_2178132405_32b57ec 34.4900 7.9420 0.0 0.0
N_2178132406_45cb11d 34.5010 8.5390 0.0 0.0
N_2178132407_c85aee6 34.6910 7.9571 0.0 0.0
N_2178132408_8bd91a3 34.9430 7.2413 0.0 0.0
N_2178132601_6f40a42 35.7570 8.1794 0.0 0.0
N_2178132602_45857d6 35.7680 8.1684 0.0 0.0
N_2178132603_7a5fff0 35.8040 7.6280 0.0 0.0
N_2178132604_00eea72 35.9250 8.0374 0.0 0.0
N_2178132605_14de3ae 35.9730 7.9894 0.0 0.0
N_2178132606_2622d1b 36.0320 8.5060 0.0 0.0
N_2178132607_2d9ccd8 36.0900 8.8964 0.0 0.0
N_2178132901_395c83d 36.0750 7.9153 0.0 0.0
N_2178132902_d9b7737 36.2200 7.6427 0.0 0.0
N_2178132903_294e6b3 36.4530 7.4097 0.0 0.0
N_2178132904_158e338 36.5960 8.6313 0.0 0.0
N_2178132905_0c5ed3b 36.7370 9.5776 0.0 0.0
N_2178133001_634aa4f 36.6550 14.9848 0.0 0.0
N_2178133002_91fc2fa 36.9110 7.4563 0.0 0.0
N_2178133003_b07e8ff 37.5220 9.2651 0.0 0.0
N_2178133601_bf4676a 36.1080 8.8784 0.0 0.0
N_2178133602_17291ab 36.1730 8.8134 0.0 0.0
N_2178133701_57133a4 36.2650 9.3133 0.0 0.0
N_2178133702_8a05632 36.3610 8.5057 0.0 0.0
N_2178133703_1843859 36.4160 8.0301 0.0 0.0
N_2178133704_12726c9 36.4740 7.9721 0.0 0.0
N_2178133705_fc4d95e 36.5080 7.9381 0.0 0.0
N_2178133706_307ef28 36.7710 7.6929 0.0 0.0
N_2178133707_1f3294a 36.8980 7.5340 0.0 0.0
N_2178133708_3bdf916 37.0430 7.3890 0.0 0.0
N_2178134801_4e89c82 37.4020 9.0941 0.0 0.0
N_2178134802_09214ec 37.7420 8.6900 0.0 0.0
N_2178134803_66d061d 37.7430 8.6890 0.0 0.0
N_2178134804_6f3e340 37.7440 9.2359 0.0 0.0
N_2178134805_eb2ef24 37.9490 8.4830 0.0 0.0
N_2178134806_3d51710 38.0370 8.3950 0.0 0.0
N_2178134807_a97d7d2 38.3370 8.5626 0.0 0.0
N_2178134808_a19b0da 38.4100 8.4896 0.0 0.0
N_2178135801_fc678c2 39.0560 8.6950 0.0 0.0
N_2178135802_f7537e2 39.2460 8.7707 0.0 0.0
N_2178135803_fce4cc0 39.4700 7.5602 0.0 0.0
N_2178136401_754309d 39.2030 6.4882 0.0 0.0
N_2178136402_4bd3466 39.2650 6.6586 0.0 0.0
N_2178136403_95bb3a8 39.2810 8.3863 0.0 0.0
N_2178136404_52f1ff2 39.2990 8.3683 0.0 0.0
N_2178136501_73e6872 39.3520 8.8337 0.0 0.0
N_2178136502_cdf2758 39.4070 9.5986 0.0 0.0
N_2178136503_97e1402 39.4680 11.6184 0.0 0.0
N_2178136801_2d17868 39.9310 5.3420 0.0 0.0
N_2178137601_dedf1b3 39.5180 10.4415 0.0 0.0
N_2178137801_08ba9c4 40.5140 4.9384 0.0 0.0
N_2178138601_476f250 41.7260 4.7060 0.0 0.0
N_2178139601_289c84b 42.5000 6.1739 0.0 0.0
N_2178142101_f782355 37.9010 8.2985 0.0 0.0
N_2178142102_53b816a 38.0620 7.8447 0.0 0.0
N_2178142201_2256636 38.2140 7.6927 0.0 0.0
N_2178142202_5eaa46a 38.3090 8.2531 0.0 0.0
N_2178142203_3c3a61e 38.6160 7.9461 0.0 0.0
N_2178142204_b90abad 38.9090 8.5230 0.0 0.0
N_2178143002_94f892f 37.4890 8.8674 0.0 0.0
N_2178143003_8acb50e 37.5420 8.0501 0.0 0.0
N_2178143201_1ba1200 39.1140 7.9852 0.0 0.0
N_2178143301_1b59689 39.3200 7.6996 0.0 0.0
N_2178143302_38c358e 39.4970 7.9009 0.0 0.0
N_2178143303_6328d44 39.5950 9.4114 0.0 0.0
N_2178143401_141c24f 39.6120 18.8005 0.0 0.0
N_2178143402_228b9aa 39.6580 23.2756 0.0 0.0
N_2178146206_0e6d2f5 40.1840 7.2697 0.0 0.0
N_2178146207_4cbc338 40.2770 8.1550 0.0 0.0
N_2178146208_5a5eaa4 40.5250 14.2601 0.0 0.0
N_2178146209_fe6dad8 40.3630 8.0690 0.0 0.0
N_2178147001_2634e64 41.2710 37.1141 0.0 0.0
N_2178147201_b208a27 41.1170 12.0106 0.0 0.0
N_2178147202_cd67ca9 41.5400 11.5876 0.0 0.0
N_2178147203_70a84ab 41.7890 11.7381 0.0 0.0
N_2178147204_f4d4688 42.0730 13.8717 0.0 0.0
N_2178147301_7f023b7 42.4490 14.4846 0.0 0.0
N_2178147302_4f7349b 42.7020 6.9421 0.0 0.0
N_2178147303_a104ee5 42.8320 6.8121 0.0 0.0
N_2178147304_b27bb7c 42.9360 6.7081 0.0 0.0
N_2178148201_422147e 41.9770 4.8971 0.0 0.0
N_2178148301_8027c4b 42.5030 6.9361 0.0 0.0
N_2178148401_0b1af1e 43.5000 6.4507 0.0 0.0
N_2178148501_2716d88 44.0000 12.7762 0.0 0.0
N_2178148701_f7c8290 44.5000 17.9360 0.0 0.0
N_2178148801_a1e1e39 45.5000 6.9902 0.0 0.0
N_2178149701_35cfe2a 46.2000 21.2675 0.0 0.0
N_2179090001_b5d58ec 27.6000 10.7786 0.0 0.0
N_2179100101_6b11e08 25.8560 6.7298 0.0 0.0
N_2179100102_f72550f 25.8450 6.6462 0.0 0.0
N_2179100103_392fe65 25.8370 10.6468 0.0 0.0
N_2179100104_5186cb3 25.8260 10.9198 0.0 0.0
N_2179101101_eeaf747 25.8160 13.6771 0.0 0.0
N_2179101102_6242e5a 25.8050 12.8373 0.0 0.0
N_2179101103_8e3ba5c 25.7960 5.4715 0.0 0.0
N_2179102101_1b900eb 25.7820 7.2732 0.0 0.0
N_2179102102_5a55747 25.7540 7.6780 0.0 0.0
N_2179102103_940b451 25.7220 7.7100 0.0 0.0
N_2179102201_7f8847e 25.7880 5.8935 0.0 0.0
N_2179102202_0364cc4 25.6910 7.7169 0.0 0.0
N_2179102203_cd3d0e4 25.6680 6.2914 0.0 0.0
N_2179102204_80d75ca 25.6330 8.5574 0.0 0.0
N_2179103201_99ce777 25.4730 9.3872 0.0 0.0
N_2179103202_d85dd92 25.4440 9.4162 0.0 0.0
N_2179103203_81a1f39 25.4140 8.0180 0.0 0.0
N_2179103301_ee39837 25.5980 6.2072 0.0 0.0
N_2179103302_e72b9a2 25.5620 6.2432 0.0 0.0
N_2179103303_b99a87e 25.5340 7.0891 0.0 0.0
N_2179103305_e4002e2 25.5060 7.1171 0.0 0.0
N_2179104101_42ec585 25.2710 8.8777 0.0 0.0
N_2179104102_61a7618 25.2710 7.8312 0.0 0.0
N_2179104201_b3b505f 25.3870 7.9200 0.0 0.0
N_2179104202_66cb119 25.3470 8.4444 0.0 0.0
N_2179105101_22da92f 25.2460 7.1860 0.0 0.0
N_2179105102_cf13b96 25.2120 7.2200 0.0 0.0
N_2179105103_1c6d97c 25.1870 9.9692 0.0 0.0
N_2179105104_2aa44ce 25.2200 10.4457 0.0 0.0
N_2179105105_131f689 25.2610 10.4047 0.0 0.0
N_2179105106_0564b1a 25.3250 7.1070 0.0 0.0
N_2179106101_7dfad05 25.4120 7.2607 0.0 0.0
N_2179106102_4385b2f 25.4890 7.1837 0.0 0.0
N_2179106201_134dbef 25.5670 5.8650 0.0 0.0
N_2179106202_b8a50ef 25.7370 6.0279 0.0 0.0
N_2179106203_21a0fd9 25.6150 6.1499 0.0 0.0
N_2179106204_46cff7d 25.7760 9.2309 0.0 0.0
N_2179106205_527821e 25.8020 9.2049 0.0 0.0
N_2179106206_ecc9858 25.8460 13.8432 0.0 0.0
N_2179106207_7bbe61c 25.9110 12.4360 0.0 0.0
N_2179106208_0722dd7 25.8850 12.4620 0.0 0.0
N_2179106301_16007ee 26.1680 22.0399 0.0 0.0
N_2179106302_4f5037c 26.1040 12.2146 0.0 0.0
N_2179106303_fb51bcb 26.1320 12.1866 0.0 0.0
N_2179106304_2b068f3 26.2020 22.0059 0.0 0.0
N_2179106305_f940cd0 26.0970 12.2216 0.0 0.0
N_2179106306_9c5151a 26.0120 12.9214 0.0 0.0
N_2179106307_ba4ca7c 26.0580 9.3648 0.0 0.0
N_2179106308_01e0424 25.9710 8.9253 0.0 0.0
N_2179106401_4d4b83a 26.2520 24.9156 0.0 0.0
N_2179106402_910040a 26.3690 13.5739 0.0 0.0
N_2179106403_38a690c 26.4030 13.5399 0.0 0.0
N_2179106404_b01d871 26.4420 13.5009 0.0 0.0
N_2179106405_2ce00fb 26.4740 13.4689 0.0 0.0
N_2179111202_8acbef3 28.5470 13.1903 0.0 0.0
N_2179111203_85c354a 28.3990 13.3383 0.0 0.0
N_2179111204_d9de370 28.3340 13.4033 0.0 0.0
N_2179111205_a34325f 28.6900 17.7065 0.0 0.0
N_2179111301_e86fd3c 29.0390 15.9502 0.0 0.0
N_2179111302_4b143b7 28.9720 15.9275 0.0 0.0
N_2179111303_25055e3 29.1250 15.8642 0.0 0.0
N_2179111304_699e7d5 28.8500 16.0495 0.0 0.0
N_2179112301_d6ab719 29.2200 14.9788 0.0 0.0
N_2179112302_d36a78a 29.3360 18.8745 0.0 0.0
N_2179112303_b67b6e2 29.4830 18.7275 0.0 0.0
N_2179112304_7fbcfe9 29.6100 19.8220 0.0 0.0
N_2179112401_d7a1733 29.7900 19.6420 0.0 0.0
N_2179112402_77fc9a5 29.8930 20.4979 0.0 0.0
N_2179112403_36c8c0d 29.9650 23.2550 0.0 0.0
N_2179112404_3cbc692 30.0300 23.1900 0.0 0.0
N_2179112405_4b3ed11 30.1570 21.5661 0.0 0.0
N_2179112406_a479edb 30.4140 15.0229 0.0 0.0
N_2179112501_b69ce4e 30.6560 15.3975 0.0 0.0
N_2179112502_5476936 31.0140 15.0395 0.0 0.0
N_2179112503_6b994c3 31.0730 15.0853 0.0 0.0
N_2179112801_31bb4d3 35.8990 17.5601 0.0 0.0
N_2179112802_5babc87 35.3340 18.1251 0.0 0.0
N_2179112803_2c79300 36.1460 17.1656 0.0 0.0
N_2179112804_c9b5b00 34.6360 14.8210 0.0 0.0
N_2179112805_5fb349d 34.1590 15.2980 0.0 0.0
N_2179112806_1924711 33.9410 9.6056 0.0 0.0
N_2179112901_9891601 36.9640 14.4299 0.0 0.0
N_2179112902_1038de3 36.8690 17.2867 0.0 0.0
N_2179112903_48dc1e8 36.5590 16.7194 0.0 0.0
N_2179112904_dbf49e2 36.4130 16.8654 0.0 0.0
N_2179112905_9e4f292 36.7720 19.7764 0.0 0.0
N_2179112906_aeb89fd 36.6630 19.8854 0.0 0.0
N_2179112907_f55bf5a 36.3210 16.6289 0.0 0.0
N_2179112908_2b7d11d 36.2340 16.7159 0.0 0.0
N_2179113501_1442163 31.2310 12.9380 0.0 0.0
N_2179113502_75ecbe1 31.1140 15.0443 0.0 0.0
N_2179113503_b0aa6ad 31.3380 11.7400 0.0 0.0
N_2179113504_3783232 31.1420 15.0163 0.0 0.0
N_2179113505_3035a5a 31.4230 11.6550 0.0 0.0
N_2179113601_f4217c3 31.5260 11.0729 0.0 0.0
N_2179113602_85f18d6 31.7010 9.8789 0.0 0.0
N_2179113603_3f82fd7 31.8740 9.1481 0.0 0.0
N_2179113701_5c3dfe8 32.6220 12.6165 0.0 0.0
N_2179113702_e154286 32.7190 12.5195 0.0 0.0
N_2179113703_3485ca0 32.2030 10.2277 0.0 0.0
N_2179113704_2c00d02 32.4670 9.9637 0.0 0.0
N_2179113705_a03d845 33.3360 10.8166 0.0 0.0
N_2179113706_b0bae76 32.9220 13.5959 0.0 0.0
N_2179113707_4a82612 33.2350 14.1917 0.0 0.0
N_2179113708_98d8012 33.1380 14.2887 0.0 0.0
N_2179113801_dc24f1b 33.5770 9.9696 0.0 0.0
N_2179113802_dc089b8 33.4780 10.6746 0.0 0.0
N_2179121001_9796b8c 37.8450 12.7705 0.0 0.0
N_2179121002_08ba47a 37.7580 16.6740 0.0 0.0
N_2179121003_38bcaae 38.0610 7.4390 0.0 0.0
N_2179121004_db0d8e6 37.9880 7.5120 0.0 0.0
N_2179121005_a71bf0c 37.5410 14.6617 0.0 0.0
N_2179121006_42ee938 37.4780 14.7247 0.0 0.0
N_2179121007_cc5a684 37.3540 15.5503 0.0 0.0
N_2179121101_1ea8ed9 38.5680 9.7142 0.0 0.0
N_2179121102_a409848 38.3180 8.7637 0.0 0.0
N_2179121103_eb20fd2 38.6570 9.6252 0.0 0.0
N_2179121104_7d39e0c 38.8260 9.4562 0.0 0.0
N_2179121105_fa4759d 38.8640 11.2851 0.0 0.0
N_2179121106_900bee2 38.1870 7.3130 0.0 0.0
N_2179121107_72fd9b0 39.0370 12.9512 0.0 0.0
N_2179121108_d1b3a0d 39.2760 10.8577 0.0 0.0
N_2179121201_522c4fd 39.5380 10.5389 0.0 0.0
N_2179121202_21ce95e 39.7080 10.3689 0.0 0.0
N_2179121801_96d5b00 53.4890 10.1242 0.0 0.0
N_2179121802_6f862a0 53.2050 10.4082 0.0 0.0
N_2179122001_b6949fd 37.3010 12.6542 0.0 0.0
N_2179122002_a99fa4c 37.1700 12.7852 0.0 0.0
N_2179122003_98e2015 37.0740 14.3199 0.0 0.0
N_2179122201_dc8b1e1 40.6070 14.0955 0.0 0.0
N_2179122202_4e26e23 40.5320 14.1705 0.0 0.0
N_2179122203_23f4d6d 40.4100 14.2925 0.0 0.0
N_2179122204_e0ad1d9 39.9160 13.7443 0.0 0.0
N_2179122205_d10d34b 40.3150 14.8132 0.0 0.0
N_2179122206_c61fa2e 40.0720 15.0562 0.0 0.0
N_2179122207_73301a1 40.1970 14.9312 0.0 0.0
N_2179122301_6ecedad 40.9400 15.9044 0.0 0.0
N_2179122302_ea3a59e 41.0650 13.9588 0.0 0.0
N_2179122303_bc77d5d 40.7530 16.0914 0.0 0.0
N_2179122304_0a2ee08 41.2490 13.7748 0.0 0.0
N_2179122305_4fc0749 41.6120 13.4118 0.0 0.0
N_2179122306_ac2e550 41.8370 8.4241 0.0 0.0
N_2179122307_ee57d73 42.1540 8.1071 0.0 0.0
N_2179122308_f3d01fa 42.3750 6.8154 0.0 0.0
N_2179122309_e478221 42.4740 9.9664 0.0 0.0
N_2179122401_41b983e 43.1120 13.6749 0.0 0.0
N_2179122402_4bba9c2 44.0180 17.6315 0.0 0.0
N_2179122403_3435def 43.6270 13.1599 0.0 0.0
N_2179122404_af367b7 43.4580 13.3289 0.0 0.0
N_2179122405_0cca5c7 43.5970 13.1899 0.0 0.0
N_2179122406_aec1330 43.7140 13.0729 0.0 0.0
N_2179122407_278f2a3 43.7910 21.7841 0.0 0.0
N_2179122408_c67977b 44.2210 18.6882 0.0 0.0
N_2179122501_08f92ea 46.9410 10.0911 0.0 0.0
N_2179122502_c087098 45.3490 22.0830 0.0 0.0
N_2179122503_51a70a1 45.5980 18.6039 0.0 0.0
N_2179122504_5e64af1 46.1400 11.5964 0.0 0.0
N_2179122505_ff3bb5c 46.2500 11.4864 0.0 0.0
N_2179122506_0df651e 46.3880 11.3484 0.0 0.0
N_2179122507_8f47339 46.3010 11.4354 0.0 0.0
N_2179122601_082a161 49.9170 8.0520 0.0 0.0
N_2179122602_e6c3b0d 49.7070 7.7250 0.0 0.0
N_2179122603_f099f2a 49.7070 7.8021 0.0 0.0
N_2179122604_ee97c23 49.2110 7.5236 0.0 0.0
N_2179122605_ae0d9f6 48.9940 7.7406 0.0 0.0
N_2179122606_68c52f4 48.7720 7.9626 0.0 0.0
N_2179122607_923fb0a 48.6660 8.0686 0.0 0.0
N_2179122608_8c6c982 48.5920 8.1426 0.0 0.0
N_2179122701_f9ae5b3 52.8210 7.8463 0.0 0.0
N_2179122702_e857d6b 51.0300 8.6483 0.0 0.0
N_2179122703_c72ffe8 50.8580 8.5740 0.0 0.0
N_2179122704_11e6925 50.2870 7.6820 0.0 0.0
N_2179122801_0d81e20 53.7960 11.5541 0.0 0.0
N_2179122802_879b661 54.0000 11.3501 0.0 0.0
N_2179122803_c77ee3e 54.5770 18.0570 0.0 0.0
N_2179122804_6f40c9d 54.7770 17.8570 0.0 0.0
N_2179122805_086ba1e 55.1750 17.4590 0.0 0.0
N_2179122901_23ce81b 56.9450 8.5162 0.0 0.0
N_2179122902_7e5a370 57.1840 8.5180 0.0 0.0
N_2179122903_25c154d 57.4370 8.2650 0.0 0.0
N_2179122904_20aa30a 57.6920 8.0100 0.0 0.0
N_2179122905_7719c29 57.7620 8.4772 0.0 0.0
N_2179122906_0597c06 58.0860 7.3460 0.0 0.0
N_2179123401_127d275 44.5840 18.3252 0.0 0.0
N_2179123402_f5085a3 44.6550 18.2542 0.0 0.0
N_2179123403_cc8c6eb 44.8610 18.1549 0.0 0.0
N_2179123404_f19692b 45.5150 17.5009 0.0 0.0
N_2179123405_a067f68 45.6750 20.8139 0.0 0.0
N_2179123406_6aba0b4 45.4510 17.5649 0.0 0.0
N_2179123501_964097f 46.4780 9.0302 0.0 0.0
N_2179123502_0f0b1a4 46.4780 9.0302 0.0 0.0
N_2179123503_6b2cfe7 45.8450 20.6439 0.0 0.0
N_2179123504_58e1d42 46.6870 7.1616 0.0 0.0
N_2179123505_654df97 46.3240 9.1842 0.0 0.0
N_2179123506_d1dec56 45.9750 13.0622 0.0 0.0
N_2179123507_5a914f8 46.2620 12.7752 0.0 0.0
N_2179123508_9898f07 46.1960 12.8412 0.0 0.0
N_2179123509_b608308 46.0730 12.9642 0.0 0.0
N_2179123510_a9cc457 46.7740 6.6580 0.0 0.0
N_2179123511_cd62509 46.9130 6.5190 0.0 0.0
N_2179123601_1be7726 47.0090 7.1463 0.0 0.0
N_2179123602_610abc5 47.1760 6.9793 0.0 0.0
N_2179123603_88457ba 47.3930 8.2578 0.0 0.0
N_2179123604_5bc05d7 47.5000 8.1508 0.0 0.0
N_2179123605_a2a0a1e 47.5160 8.1348 0.0 0.0
N_2179123606_265a537 48.2980 10.5852 0.0 0.0
N_2179123607_362b212 48.5130 10.3702 0.0 0.0
N_2179123608_843755d 47.5670 9.6617 0.0 0.0
N_2179123609_f6128d9 48.1250 9.1037 0.0 0.0
N_2179124601_efa2b91 48.6830 10.2002 0.0 0.0
N_2179124602_3dd5a70 47.7430 9.4857 0.0 0.0
N_2179124603_4e1e5c6 48.8580 10.0252 0.0 0.0
N_2179124604_6d0ae75 49.1320 11.3904 0.0 0.0
N_2179124605_6af4249 49.3720 13.5943 0.0 0.0
N_2179124701_3fd812e 49.4860 13.4803 0.0 0.0
N_2179124702_c77f655 50.6360 14.9375 0.0 0.0
N_2179124703_9fa2fca 49.5810 13.3853 0.0 0.0
N_2179124704_3806966 50.2690 14.5326 0.0 0.0
N_2179124705_7676681 49.9940 14.8076 0.0 0.0
N_2179124706_5fe652f 49.7720 13.1943 0.0 0.0
N_2179124801_2260c15 51.6310 10.4264 0.0 0.0
N_2179124802_30baaf0 52.1040 9.9534 0.0 0.0
N_2179124803_a5469cf 50.9270 12.5058 0.0 0.0
N_2179124804_67d1faf 52.8370 8.7187 0.0 0.0
N_2179124805_caf46d4 52.3290 9.7284 0.0 0.0
N_2179124806_b91849b 52.5230 9.0327 0.0 0.0
N_2179124807_25d5cdd 53.2290 9.4427 0.0 0.0
N_2179124808_d2e1ed6 53.4000 9.2717 0.0 0.0
N_2179124901_305e835 54.8420 9.9923 0.0 0.0
N_2179124902_2206429 55.4160 8.3038 0.0 0.0
N_2179124903_2b68d53 56.4420 9.0968 0.0 0.0
N_2179124904_61a61a3 56.0220 9.5168 0.0 0.0
N_2179124905_7f5e8c1 55.7250 7.9948 0.0 0.0
N_2179130501_68fb310 44.1090 9.8307 0.0 0.0
N_2179130601_a34c052 44.5470 7.6376 0.0 0.0
N_2179130602_fa94698 45.0000 6.5668 0.0 0.0
N_2179132001_9327c47 58.4230 7.0090 0.0 0.0
N_2179132002_d36fca0 58.8780 6.7246 0.0 0.0
N_2179132003_f19a01e 59.1400 6.4626 0.0 0.0
N_2179132004_56a4356 59.2840 6.3186 0.0 0.0
N_2179134001_f96ca89 60.8690 10.8400 0.0 0.0
N_2179134002_1b5030c 61.1740 10.5350 0.0 0.0
N_2179134003_00a60a0 60.1370 12.3587 0.0 0.0
N_2179134004_f5a7bf3 59.7300 13.2150 0.0 0.0
N_2179134005_ccd252a 58.7040 22.1824 0.0 0.0
N_2179134006_37b9ecf 57.0220 15.3945 0.0 0.0
N_2179134101_84dda8f 63.1220 11.2911 0.0 0.0
N_2179134102_aa0fcec 62.5560 10.4421 0.0 0.0
N_2179134103_ef7e119 63.5470 10.8661 0.0 0.0
N_2179134104_4872a21 64.2470 9.3953 0.0 0.0
N_2179134201_8ea02ee 64.6580 9.5748 0.0 0.0
N_2179134202_ff894cb 66.5620 6.6819 0.0 0.0
N_2179135201_977ce8f 67.2250 8.0186 0.0 0.0
N_2179135202_b7da7ba 67.5520 7.6916 0.0 0.0
N_2179135203_b146dee 68.0360 9.5970 0.0 0.0
N_2179135204_2ff689a 69.8680 8.1841 0.0 0.0
N_2179135301_cbd9ba8 70.1250 6.1281 0.0 0.0
N_2179135302_734b229 70.2360 6.0171 0.0 0.0
N_2179135303_2568f40 70.3650 10.1321 0.0 0.0
N_2179135304_3108969 70.9640 8.8329 0.0 0.0
N_2179135305_bd8d741 71.7960 8.2455 0.0 0.0
N_2179135306_ca86e62 71.2140 8.5829 0.0 0.0
N_2179135401_9ccfd01 72.3250 7.7165 0.0 0.0
N_2179140701_a4903a1 47.1990 14.0550 0.0 0.0
N_2179141601_f5fa501 48.0000 7.9557 0.0 0.0
N_2179141701_02d9717 47.6980 18.7590 0.0 0.0

[OUTFALLS]
N_2173077305_8b4ff9c 23.2260 FREE NO
B_2173077305_18722_44aa90b 23.2260 FREE NO
N_2174064701_1c0e380 27.3720 FREE NO
N_2174064803_0cc77b7 28.3000 FREE NO
N_2174064805_a506297 26.2460 FREE NO
B_2174064805_21889_98742e6 26.2460 FREE NO
N_2174064903_3cac65e 26.6000 FREE NO
N_2174071601_6974c5a 24.0000 FREE NO
N_2175084101_b4b5d69 24.0670 FREE NO
N_2175086503_f360a45 25.9000 FREE NO
N_2175087701_307a8c8 26.3400 FREE NO
N_2176047501_f0a8210 22.9900 FREE NO
N_2176100501_68ba9bb 25.6800 FREE NO
N_2176101102_5f7c28b 25.0000 FREE NO
N_2176105901_8e4a718 26.1080 FREE NO
N_2176106801_bf8d0f2 25.0000 FREE NO
N_2176118001_39083b9 24.0000 FREE NO
N_2176118501_30ef276 26.8000 FREE NO
N_2176138203_88f3c46 26.1020 FREE NO
N_2177097806_caa1d43 26.1280 FREE NO
N_2177097806_51c2a6a 26.1280 FREE NO
N_2177105016_eb627b3 25.2390 FREE NO
N_2177105016_1390709 25.2390 FREE NO
N_2177120801_2c22465 26.3070 FREE NO
N_2178134809_50e5d42 38.6880 FREE NO
N_2178135403_c4ee85a 38.7000 FREE NO
N_2178137603_2aa84df 39.7000 FREE NO
B_2178137603_29700_aaa625c 39.7000 FREE NO
N_2178142104_fff4fcd 37.7360 FREE NO
N_2178143001_58242ba 37.4370 FREE NO
N_2178146205_d4a0388 40.0520 FREE NO
N_2179105001_f9bc8c5 25.1550 FREE NO
B_2179105001_30077_d46d12c 25.1550 FREE NO
N_2179111206_18125e0 28.2940 FREE NO

[CONDUITS]
C_18683 N_2173075007_c8d38db N_2173075105_de425c7 36.8000 0.0160 0.0000 0.0000 0.0 0.0
C_18684 N_2173075008_0583379 N_2173075106_54c6b35 37.2000 0.0160 0.0000 0.0000 0.0 0.0
C_18685 N_2173075009_c397ed3 N_2173075007_c8d38db 28.8000 0.0160 0.0830 0.0000 0.0 0.0
C_18686 N_2173075009_c397ed3 N_2173075008_0583379 28.3000 0.0160 0.0000 0.0100 0.0 0.0
C_18688 N_2173075101_d379d5f N_2173075206_47d0ea9 31.1000 0.0160 0.0000 0.0000 0.0 0.0
C_18689 N_2173075102_5d8f77e N_2173075207_ea48a99 30.0000 0.0160 0.0000 0.0000 0.0 0.0
C_18690 N_2173075103_fef184b N_2173075101_d379d5f 32.7000 0.0160 0.0000 0.0000 0.0 0.0
C_18691 N_2173075104_7718eb1 N_2173075102_5d8f77e 33.0000 0.0160 0.0000 0.0000 0.0 0.0
C_18692 N_2173075105_de425c7 N_2173075103_fef184b 29.6000 0.0160 0.0000 0.0000 0.0 0.0
C_18693 N_2173075106_54c6b35 N_2173075104_7718eb1 30.5000 0.0160 0.0000 0.0000 0.0 0.0
C_18694 N_2173075202_ecc75ab N_2173075203_e6318d6 30.3000 0.0160 0.0000 0.0000 0.0 0.0
C_18695 N_2173075203_e6318d6 N_2173076301_eccf1c9 71.6000 0.0160 0.0000 0.0000 0.0 0.0
C_18696 N_2173075204_645c7a5 N_2173075205_7e2d2df 27.7000 0.0160 0.0000 0.0000 0.0 0.0
C_18697 N_2173075205_7e2d2df N_2173076302_50e6bfa 68.7000 0.0160 0.0000 0.0000 0.0 0.0
C_18698 N_2173075206_47d0ea9 N_2173075202_ecc75ab 37.1000 0.0160 0.0000 0.0000 0.0 0.0
C_18699 N_2173075207_ea48a99 N_2173075204_645c7a5 37.4000 0.0160 0.0000 0.0000 0.0 0.0
C_18712 N_2173076301_eccf1c9 N_2173077301_91e67ea 71.5000 0.0160 0.0000 0.0000 0.0 0.0
C_18713 N_2173076302_50e6bfa N_2173077302_31cf53a 72.5000 0.0160 0.0000 0.0000 0.0 0.0
C_18717 N_2173077301_91e67ea N_2173077303_637beba 49.2000 0.0160 0.0000 0.0000 0.0 0.0
C_18718 N_2173077302_31cf53a N_2173077304_05f2b19 49.1000 0.0160 0.0000 0.0000 0.0 0.0
C_18719 N_2173077303_637beba N_2173077306_0d7f3b5 41.4000 0.0160 0.0000 0.0160 0.0 0.0
C_18720 N_2173077304_05f2b19 N_2173077306_0d7f3b5 40.8000 0.0160 0.0000 0.0160 0.0 0.0
C_18721 N_2173077306_0d7f3b5 N_2173077305_8b4ff9c 45.8000 0.0160 0.0000 0.0000 0.0 0.0
C_18722 N_2173077306_0d7f3b5 B_2173077305_18722_44aa90b 45.8000 0.0160 0.0160 0.0000 0.0 0.0
C_18727 N_2173078301_7c666b9 N_2173077306_0d7f3b5 52.0000 0.0160 0.0010 0.0000 0.0 0.0
C_18728 N_2173078301_7c666b9 N_2173077306_0d7f3b5 52.8000 0.0160 0.0000 0.0000 0.0 0.0
C_18729 N_2173079301_ad7d291 N_2173078301_7c666b9 75.7000 0.0160 0.0000 0.0000 0.0 0.0
C_18730 N_2173079302_caab2e5 N_2173078301_7c666b9 75.5000 0.0160 0.0000 0.0010 0.0 0.0
C_18731 N_2173079303_8c5eadc N_2173079302_caab2e5 24.3000 0.0160 0.0000 0.0000 0.0 0.0
C_18732 N_2173079304_01a0cb0 N_2173079303_8c5eadc 36.6000 0.0130 0.0000 1.4000 0.0 0.0
C_18733 N_2173079305_f14a5e3 N_2173079304_01a0cb0 31.4000 0.0130 0.0000 0.0000 0.0 0.0
C_18734 N_2173079401_50bca1f N_2173079301_ad7d291 79.2000 0.0160 0.0000 0.0000 0.0 0.0
C_18735 N_2173079402_94599fe N_2173079303_8c5eadc 55.2000 0.0160 0.0000 0.0000 0.0 0.0
C_21411 N_2174055507_ec0244e N_2174055607_30c8260 88.1000 0.0130 0.0000 0.0000 0.0 0.0
C_21414 N_2174055607_30c8260 N_2174056601_207dbad 12.7000 0.0130 0.0000 0.0000 0.0 0.0
C_21416 N_2174055608_4c705b5 N_2174056602_690ab9d 11.5000 0.0130 0.0000 0.0000 0.0 0.0
C_21417 N_2174055608_4c705b5 N_2174056602_690ab9d 12.8000 0.0130 0.0000 0.0000 0.0 0.0
C_21447 N_2174056505_b208c3d N_2174056508_f723d7a 17.0000 0.0160 0.0000 0.0000 0.0 0.0
C_21451 N_2174056508_f723d7a N_2174056615_84a3a8c 23.9000 0.0160 0.0000 0.0000 0.0 0.0
C_21456 N_2174056601_207dbad N_2174056603_77476e2 11.4000 0.0130 0.0000 0.0000 0.0 0.0
C_21457 N_2174056602_690ab9d N_2174056604_0c4fef1 10.9000 0.0130 0.0000 0.0000 0.0 0.0
C_21458 N_2174056602_690ab9d N_2174056604_0c4fef1 12.4000 0.0130 0.0000 0.0000 0.0 0.0
C_21459 N_2174056602_690ab9d N_2174056604_0c4fef1 11.7000 0.0130 0.0000 0.0000 0.0 0.0
C_21460 N_2174056603_77476e2 N_2174056604_0c4fef1 12.2000 0.0130 0.0000 0.2330 0.0 0.0
C_21461 N_2174056604_0c4fef1 N_2174056605_86c1ce5 13.5000 0.0160 0.0000 0.0000 0.0 0.0
C_21462 N_2174056605_86c1ce5 N_2174056606_cbc6b4e 10.9000 0.0160 0.0000 0.0000 0.0 0.0
C_21463 N_2174056606_cbc6b4e N_2174056608_e221e8f 31.0000 0.0160 0.0000 0.0000 0.0 0.0
C_21464 N_2174056608_e221e8f N_2174056610_b2cffd0 17.3000 0.0160 0.0000 0.0000 0.0 0.0
C_21466 N_2174056610_b2cffd0 N_2174056613_b7ad54a 26.0000 0.0160 0.0000 0.0000 0.0 0.0
C_21468 N_2174056613_b7ad54a N_2174057602_33187ef 29.3000 0.0160 0.0000 0.0000 0.0 0.0
C_21469 N_2174056614_b598990 N_2174056617_699a582 25.1000 0.0130 0.0000 0.0000 0.0 0.0
C_21470 N_2174056615_84a3a8c N_2174057601_52abd7d 26.9000 0.0160 0.0000 0.0000 0.0 0.0
C_21472 N_2174056617_699a582 N_2174057607_529b015 20.5000 0.0130 0.0000 0.4600 0.0 0.0
C_21528 N_2174057410_34e9311 N_2174058401_74c1078 42.8000 0.0130 0.0000 0.0000 0.0 0.0
C_21529 N_2174057410_34e9311 N_2174058415_7034bc8 100.5000 0.0130 0.0000 0.0000 0.0 0.0
C_21530 N_2174057411_71b2d38 N_2174057410_34e9311 22.5000 0.0160 0.0000 0.0000 0.0 0.0
C_21534 N_2174057504_c0d746e N_2174058502_4df8f84 9.3000 0.0160 0.0000 0.0000 0.0 0.0
C_21535 N_2174057505_958ef9f N_2174057411_71b2d38 23.5000 0.0160 0.0000 0.0000 0.0 0.0
C_21536 N_2174057506_955de55 N_2174057505_958ef9f 23.8000 0.0160 0.0000 0.0000 0.0 0.0
C_21537 N_2174057601_52abd7d N_2174057604_0bc0f8b 10.2000 0.0160 0.0000 0.0000 0.0 0.0
C_21538 N_2174057602_33187ef N_2174057603_adab68c 7.1000 0.0130 0.0000 0.0000 0.0 0.0
C_21539 N_2174057602_33187ef N_2174057607_529b015 14.9000 0.0130 0.0000 0.5980 0.0 0.0
C_21540 N_2174057602_33187ef N_2174057606_141d93d 8.3000 0.0130 0.0000 0.0000 0.0 0.0
C_21542 N_2174057603_adab68c N_2174057607_529b015 8.6000 0.0130 0.0000 0.5980 0.0 0.0
C_21543 N_2174057604_0bc0f8b N_2174057611_4d900a7 17.2000 0.0160 0.0000 0.0000 0.0 0.0
C_21544 N_2174057605_59fa55b N_2174057602_33187ef 9.3000 0.0130 0.0000 0.0000 0.0 0.0
C_21545 N_2174057606_141d93d N_2174057607_529b015 7.1000 0.0130 0.0000 0.5980 0.0 0.0
C_21546 N_2174057607_529b015 N_2174057611_4d900a7 10.1000 0.0130 0.0000 0.0000 0.0 0.0
C_21547 N_2174057607_529b015 N_2174057608_7f04778 5.8000 0.0130 0.0000 0.0000 0.0 0.0
C_21548 N_2174057607_529b015 N_2174057610_194680a 7.2000 0.0130 0.0000 0.0000 0.0 0.0
C_21549 N_2174057608_7f04778 N_2174057611_4d900a7 5.4000 0.0130 0.0000 0.0000 0.0 0.0
C_21551 N_2174057610_194680a N_2174057611_4d900a7 3.8000 0.0130 0.0000 0.0000 0.0 0.0
C_21552 N_2174057611_4d900a7 N_2174057613_ab0fbf4 8.4000 0.0160 0.0000 0.0000 0.0 0.0
C_21554 N_2174057612_25538b8 N_2174057605_59fa55b 24.9000 0.0130 0.0000 0.0000 0.0 0.0
C_21555 N_2174057613_ab0fbf4 N_2174057618_6a58d48 28.4000 0.0160 0.0000 0.0000 0.0 0.0
C_21556 N_2174057614_faa298b N_2174057612_25538b8 15.2000 0.0130 0.0000 0.0000 0.0 0.0
C_21558 N_2174057616_91f1d43 N_2174057614_faa298b 4.9000 0.0130 0.0000 0.0000 0.0 0.0
C_21559 N_2174057617_8dc65a7 N_2174057616_91f1d43 4.9000 0.0130 0.0000 0.0000 0.0 0.0
C_21560 N_2174057618_6a58d48 N_2174057621_7cd9ad8 26.2000 0.0160 0.0000 0.0000 0.0 0.0
C_21564 N_2174057621_7cd9ad8 N_2174057504_c0d746e 34.2000 0.0160 0.0000 0.0000 0.0 0.0
C_21594 N_2174058307_e669fd8 N_2174058402_6f747ed 55.5000 0.0160 0.0000 0.0000 0.0 0.0
C_21595 N_2174058308_985ffcd N_2174058408_59956cf 5.1000 0.0160 0.0000 0.0000 0.0 0.0
C_21602 N_2174058401_74c1078 N_2174058413_b852792 49.0000 0.0130 0.0000 0.0000 0.0 0.0
C_21603 N_2174058402_6f747ed N_2174058412_e2adc4e 42.4000 0.0160 0.0000 0.0000 0.0 0.0
C_21604 N_2174058403_59717bd N_2174058409_fafad4c 15.1000 0.0160 0.0000 0.0000 0.0 0.0
C_21605 N_2174058404_920a299 N_2174058403_59717bd 4.0000 0.0160 0.0000 0.0000 0.0 0.0
C_21606 N_2174058405_316f96d N_2174058404_920a299 8.0000 0.0160 0.0000 0.0000 0.0 0.0
C_21607 N_2174058406_92d5ed0 N_2174058405_316f96d 10.3000 0.0160 0.0000 0.0000 0.0 0.0
C_21608 N_2174058407_4535677 N_2174058406_92d5ed0 10.2000 0.0160 0.0000 0.0000 0.0 0.0
C_21609 N_2174058408_59956cf N_2174058407_4535677 10.1000 0.0160 0.0000 0.0000 0.0 0.0
C_21610 N_2174058409_fafad4c N_2174058411_19d11fe 22.7000 0.0160 0.0000 0.0000 0.0 0.0
C_21612 N_2174058411_19d11fe N_2174058414_9f300ae 12.7000 0.0160 0.0000 0.0000 0.0 0.0
C_21613 N_2174058412_e2adc4e N_2174058415_7034bc8 11.6000 0.0160 0.0000 0.0000 0.0 0.0
C_21614 N_2174058413_b852792 N_2174058415_7034bc8 10.3000 0.0130 0.0000 0.0000 0.0 0.0
C_21615 N_2174058414_9f300ae N_2174059402_926c5ed 44.3000 0.0160 0.0000 0.0000 0.0 0.0
C_21616 N_2174058415_7034bc8 N_2174059401_0eeae2d 19.8000 0.0160 0.0000 0.0000 0.0 0.0
C_21617 N_2174058501_b706378 N_2174057506_955de55 14.9000 0.0160 0.0000 0.0000 0.0 0.0
C_21618 N_2174058502_4df8f84 N_2174058501_b706378 19.2000 0.0160 0.0000 0.0000 0.0 0.0
C_21644 N_2174059401_0eeae2d N_2174059403_7b9ad12 24.9000 0.0160 0.0000 0.0000 0.0 0.0
C_21645 N_2174059402_926c5ed N_2174059405_b163762 49.6000 0.0160 0.0000 0.0000 0.0 0.0
C_21646 N_2174059403_7b9ad12 N_2174059404_bc9156b 26.7000 0.0160 0.0000 0.0000 0.0 0.0
C_21647 N_2174059404_bc9156b N_2175050401_c353dd9 37.1000 0.0160 0.0000 0.0000 0.0 0.0
C_21648 N_2174059405_b163762 N_2175050403_c1aadea 43.6000 0.0160 0.0000 0.0000 0.0 0.0
C_21864 N_2174064804_6a236bd N_2174064803_0cc77b7 38.4000 0.0250 0.0000 0.0000 0.0 0.0
C_21865 N_2174064804_6a236bd N_2174064805_a506297 36.4000 0.0250 0.0000 1.8540 0.0 0.0
C_21884 N_2174065601_e5a21a8 N_2174065701_3e5658c 82.0000 0.0130 0.0000 0.0000 0.0 0.0
C_21885 N_2174065701_3e5658c N_2174064701_1c0e380 75.7000 0.0130 0.0000 0.0000 0.0 0.0
C_21886 N_2174065702_c6b825c N_2174065703_abd45e5 35.4000 0.0250 0.0000 2.1640 0.0 0.0
C_21887 N_2174065702_c6b825c N_2174065701_3e5658c 36.7000 0.0250 0.0000 1.1710 0.0 0.0
C_21888 N_2174065703_abd45e5 N_2174065801_dbbc674 81.1000 0.0130 0.0000 0.0000 0.0 0.0
C_21889 N_2174065801_dbbc674 B_2174064805_21889_98742e6 41.8000 0.0130 0.0000 0.0000 0.0 0.0
C_21890 N_2174065802_a276565 N_2174065905_093970c 34.9000 0.0250 0.0000 1.2520 0.0 0.0
C_21891 N_2174065802_a276565 N_2174065801_dbbc674 40.3000 0.0250 0.0000 2.0240 0.0 0.0
C_21892 N_2174065803_4b06d27 N_2174065905_093970c 40.2000 0.0130 0.0000 0.0000 0.0 0.0
C_21895 N_2174065903_6e1dbc9 N_2174064903_3cac65e 58.6000 0.0130 0.0000 0.0000 0.0 0.0
C_21897 N_2174065904_0e4e5d5 N_2174065906_2009e9f 26.1000 0.0130 0.0000 0.1500 0.0 0.0
C_21899 N_2174065905_093970c N_2174065903_6e1dbc9 39.9000 0.0130 0.0000 0.1250 0.0 0.0
C_21900 N_2174065906_2009e9f N_2174066901_013c529 43.3000 0.0130 0.0000 0.0000 0.0 0.0
C_21901 N_2174065907_7aaf0b5 N_2174066901_013c529 28.2000 0.0130 0.0000 0.2720 0.0 0.0
C_21902 N_2174065907_7aaf0b5 N_2174065905_093970c 45.0000 0.0130 0.8000 0.6000 0.0 0.0
C_21916 N_2174066301_66435e9 N_2174066402_bc2985b 30.5000 0.0130 0.0000 0.0000 0.0 0.0
C_21924 N_2174066402_bc2985b N_2174066403_5c991f8 16.1000 0.0130 0.0000 0.4000 0.0 0.0
C_21925 N_2174066403_5c991f8 N_2174066404_f66a918 17.9000 0.0130 0.0000 0.0000 0.0 0.0
C_21926 N_2174066404_f66a918 N_2174066405_1c6ea98 26.4000 0.0130 0.0000 0.0000 0.0 0.0
C_21927 N_2174066405_1c6ea98 N_2174066406_00656e4 30.9000 0.0130 0.0000 0.0000 0.0 0.0
C_21928 N_2174066406_00656e4 N_2174066504_b99e1a6 35.4000 0.0130 0.0000 0.0000 0.0 0.0
C_21932 N_2174066504_b99e1a6 N_2174067501_1867748 32.2000 0.0130 0.0000 0.0000 0.0 0.0
C_21934 N_2174066701_c88f0c1 N_2174066702_29415f4 3.0000 0.0130 0.0000 1.4050 0.0 0.0
C_21935 N_2174066702_29415f4 N_2174065703_abd45e5 80.7000 0.0130 0.0000 0.0000 0.0 0.0
C_21936 N_2174066703_b4cc312 N_2174066706_924ed1e 6.0000 0.0160 0.0000 0.0000 0.0 0.0
C_21937 N_2174066704_a0837f1 N_2174066703_b4cc312 2.4000 0.0250 0.0000 1.0080 0.0 0.0
C_21938 N_2174066705_76cc05c N_2174066707_e246282 9.7000 0.0130 0.0000 0.0000 0.0 0.0
C_21939 N_2174066706_924ed1e N_2174066708_7938c9d 9.3000 0.0160 0.0000 0.0000 0.0 0.0
C_21940 N_2174066707_e246282 N_2174066711_2ee2019 26.6000 0.0130 0.0000 0.0000 0.0 0.0
C_21941 N_2174066708_7938c9d N_2174066710_1dd49d5 25.0000 0.0160 0.0000 0.0000 0.0 0.0
C_21942 N_2174066709_2dd74f8 N_2174066701_c88f0c1 27.3000 0.0130 0.0000 0.0000 0.0 0.0
C_21943 N_2174066710_1dd49d5 N_2174066715_407a021 19.4000 0.0160 0.0000 0.0000 0.0 0.0
C_21944 N_2174066711_2ee2019 N_2174066716_51898ea 23.3000 0.0130 0.0000 0.0000 0.0 0.0
C_21945 N_2174066712_e956be6 N_2174066704_a0837f1 37.0000 0.0250 0.0000 0.0000 0.0 0.0
C_21946 N_2174066713_521aff6 N_2174066703_b4cc312 37.8000 0.0160 0.0000 0.0000 0.0 0.0
C_21947 N_2174066714_05a7a7c N_2174066705_76cc05c 36.2000 0.0130 0.0000 0.0000 0.0 0.0
C_21948 N_2174066715_407a021 N_2174066808_9711398 14.2000 0.0160 0.0000 0.0000 0.0 0.0
C_21949 N_2174066716_51898ea N_2174067802_fc03544 24.8000 0.0130 0.0000 0.0000 0.0 0.0
C_21950 N_2174066717_f4b97c9 N_2174066713_521aff6 26.2000 0.0160 0.0000 0.0000 0.0 0.0
C_21951 N_2174066801_31cb562 N_2174066802_9ae598a 37.1000 0.0250 0.0200 1.2120 0.0 0.0
C_21952 N_2174066801_31cb562 N_2174065703_abd45e5 37.0000 0.0250 0.0000 2.1640 0.0 0.0
C_21953 N_2174066802_9ae598a N_2174065803_4b06d27 42.2000 0.0130 0.0000 0.0000 0.0 0.0
C_21954 N_2174066803_d115dc2 N_2174066904_4fda390 33.3000 0.0250 0.0000 1.9080 0.0 0.0
C_21955 N_2174066803_d115dc2 N_2174066802_9ae598a 39.3000 0.0250 0.0000 1.2120 0.0 0.0
C_21956 N_2174066804_b2bea22 N_2174066802_9ae598a 38.2000 0.0130 0.0000 0.0000 0.0 0.0
C_21957 N_2174066806_28c8fd9 N_2174067801_c3278a1 36.6000 0.0250 0.0000 1.7290 0.0 0.0
C_21958 N_2174066806_28c8fd9 N_2174066804_b2bea22 37.2000 0.0250 0.3000 0.8010 0.0 0.0
C_21959 N_2174066807_9a2b275 N_2174066804_b2bea22 34.7000 0.0130 0.0000 0.0000 0.0 0.0
C_21960 N_2174066808_9711398 N_2174067803_a19ec81 29.2000 0.0160 0.0000 0.0000 0.0 0.0
C_21961 N_2174066901_013c529 N_2174066903_f9d3d1b 37.8000 0.0130 0.0000 0.0000 0.0 0.0
C_21962 N_2174066902_5cff9ec N_2174066903_f9d3d1b 29.3000 0.0250 0.0000 1.5890 0.0 0.0
C_21963 N_2174066902_5cff9ec N_2174065803_4b06d27 42.8000 0.0250 0.0000 0.9350 0.0 0.0
C_21964 N_2174066903_f9d3d1b N_2174066904_4fda390 39.4000 0.0130 0.0000 0.0000 0.0 0.0
C_21965 N_2174066904_4fda390 N_2174066905_96c9ba0 22.7000 0.0130 0.0000 0.1500 0.0 0.0
C_21966 N_2174066905_96c9ba0 N_2174067801_c3278a1 17.7000 0.0130 0.0000 0.0000 0.0 0.0
C_22001 N_2174067501_1867748 N_2174067502_54dc082 33.6000 0.0130 0.0000 0.0000 0.0 0.0
C_22002 N_2174067502_54dc082 N_2174067503_98e8886 32.8000 0.0130 0.0000 0.0000 0.0 0.0
C_22003 N_2174067503_98e8886 N_2174067504_0d8d4db 8.9000 0.0130 0.0000 0.0000 0.0 0.0
C_22004 N_2174067504_0d8d4db N_2174067606_b670cbb 23.7000 0.0130 0.0000 0.0000 0.0 0.0
C_22009 N_2174067602_6bb4a4c N_2174066717_f4b97c9 21.1000 0.0160 0.0000 0.0000 0.0 0.0
C_22010 N_2174067603_8db63d4 N_2174067602_6bb4a4c 6.7000 0.0130 0.0000 0.0000 0.0 0.0
C_22012 N_2174067605_20fb02b N_2174067603_8db63d4 19.4000 0.0130 0.0000 0.0000 0.0 0.0
C_22013 N_2174067606_b670cbb N_2174067607_9f0b813 29.4000 0.0130 0.0000 0.0000 0.0 0.0
C_22014 N_2174067607_9f0b813 N_2174067608_7f9a5cc 15.0000 0.0130 0.0000 0.0000 0.0 0.0
C_22015 N_2174067608_7f9a5cc N_2174067605_20fb02b 49.3000 0.0130 0.0000 0.0000 0.0 0.0
C_22019 N_2174067801_c3278a1 N_2174067805_7a50d0c 25.8000 0.0130 0.0000 0.0000 0.0 0.0
C_22020 N_2174067802_fc03544 N_2174067804_1f05a9e 18.6000 0.0130 0.0000 0.0000 0.0 0.0
C_22021 N_2174067803_a19ec81 N_2174067808_de41e6b 40.6000 0.0160 0.0000 0.0000 0.0 0.0
C_22022 N_2174067804_1f05a9e N_2174067806_5d06bd2 21.1000 0.0130 0.0000 0.0000 0.0 0.0
C_22023 N_2174067805_7a50d0c N_2174067808_de41e6b 14.4000 0.0130 0.0000 0.1600 0.0 0.0
C_22024 N_2174067806_5d06bd2 N_2174067809_32e0fc7 21.4000 0.0130 0.0000 0.0000 0.0 0.0
C_22025 N_2174067807_47d0955 N_2174067805_7a50d0c 14.4000 0.0130 0.0000 1.6750 0.0 0.0
C_22026 N_2174067808_de41e6b N_2174067901_bb47103 42.9000 0.0160 0.0000 0.0000 0.0 0.0
C_22027 N_2174067809_32e0fc7 N_2174067902_67704fd 44.9000 0.0130 0.0000 0.0000 0.0 0.0
C_22028 N_2174067901_bb47103 N_2174067904_251d0f6 32.8000 0.0160 0.0000 0.0000 0.0 0.0
C_22029 N_2174067902_67704fd N_2174067903_05cf310 19.4000 0.0130 0.0000 0.0000 0.0 0.0
C_22030 N_2174067903_05cf310 N_2174067905_d787ac3 29.4000 0.0130 0.0000 0.0000 0.0 0.0
C_22031 N_2174067904_251d0f6 N_2174067906_d629a2d 29.6000 0.0160 0.0000 0.0000 0.0 0.0
C_22032 N_2174067905_d787ac3 N_2174068901_24863db 22.8000 0.0130 0.0000 0.0000 0.0 0.0
C_22033 N_2174067906_d629a2d N_2174068902_c4d2c55 34.5000 0.0160 0.0000 0.0000 0.0 0.0
C_22076 N_2174068901_24863db N_2174068903_4fb4b15 30.9000 0.0130 0.0000 0.0000 0.0 0.0
C_22077 N_2174068902_c4d2c55 N_2174078001_dd18539 33.1000 0.0160 0.0000 0.0000 0.0 0.0
C_22078 N_2174068903_4fb4b15 N_2174078002_c315785 34.4000 0.0130 0.0000 0.0000 0.0 0.0
C_22142 N_2174070305_5d9bb1e N_2174070406_6e6ac82 23.9000 0.0130 0.0000 0.0000 0.0 0.0
C_22143 N_2174070306_26c17b9 N_2174070305_5d9bb1e 32.0000 0.0130 0.0000 0.0000 0.0 0.0
C_22144 N_2174070307_d3dc694 N_2174070306_26c17b9 33.8000 0.0130 0.0000 0.0000 0.0 0.0
C_22146 N_2174070402_a76b34d N_2173079401_50bca1f 59.1000 0.0160 0.0000 0.0000 0.0 0.0
C_22147 N_2174070402_a76b34d N_2173079402_94599fe 60.3000 0.0160 0.0000 0.0000 0.0 0.0
C_22148 N_2174070403_8fa0fd5 N_2174070402_a76b34d 15.0000 0.0160 0.0000 0.0000 0.0 0.0
C_22149 N_2174070404_1d2870f N_2174070402_a76b34d 27.3000 0.0130 0.0000 2.1700 0.0 0.0
C_22150 N_2174070405_422f8bd N_2174070404_1d2870f 27.8000 0.0130 0.0000 0.0000 0.0 0.0
C_22151 N_2174070406_6e6ac82 N_2174070405_422f8bd 21.5000 0.0130 0.0000 0.0000 0.0 0.0
C_22152 N_2174070501_08bb008 N_2174070403_8fa0fd5 43.3000 0.0160 0.0000 0.0000 0.0 0.0
C_22153 N_2174070502_facc8b5 N_2174070501_08bb008 34.5000 0.0160 0.0000 0.0000 0.0 0.0
C_22156 N_2174071301_a1fc362 N_2174070307_d3dc694 11.2000 0.0130 0.0000 0.0000 0.0 0.0
C_22157 N_2174071302_7b19441 N_2174072301_462a53d 81.9000 0.0130 0.0000 0.0000 0.0 0.0
C_22158 N_2174071401_2f6f127 N_2174071402_9e2a70b 18.2000 0.0130 0.0000 0.0000 0.0 0.0
C_22159 N_2174071402_9e2a70b N_2174070502_facc8b5 35.3000 0.0130 0.0000 1.1500 0.0 0.0
C_22160 N_2174071501_55e7eff N_2174070502_facc8b5 58.5000 0.0160 0.0000 0.0000 0.0 0.0
C_22161 N_2174071502_dd189bb N_2174071501_55e7eff 50.7000 0.0160 0.0000 0.0000 0.0 0.0
C_22165 N_2174072301_462a53d N_2174072401_f7ba51b 66.4000 0.0130 0.0000 0.0000 0.0 0.0
C_22167 N_2174072401_f7ba51b N_2174072402_dc2f7f2 44.5000 0.0130 0.0000 0.0000 0.0 0.0
C_22168 N_2174072402_dc2f7f2 N_2174072403_b5488d5 28.5000 0.0130 0.0000 0.0000 0.0 0.0
C_22169 N_2174072403_b5488d5 N_2174073503_8a28fea 22.8000 0.0130 0.0000 0.0000 0.0 0.0
C_22170 N_2174072404_8ce77f6 N_2174072403_b5488d5 18.1000 0.0130 0.0000 1.0000 0.0 0.0
C_22171 N_2174072501_fdb070e N_2174071502_dd189bb 52.0000 0.0160 0.0000 0.0000 0.0 0.0
C_22172 N_2174072502_1c06d1b N_2174072501_fdb070e 16.2000 0.0160 0.0000 0.0000 0.0 0.0
C_22173 N_2174072503_f5fe30b N_2174072502_1c06d1b 25.9000 0.0160 0.0000 0.0000 0.0 0.0
C_22174 N_2174072504_a64400d N_2174071601_6974c5a 39.9000 0.0160 0.0000 0.0000 0.0 0.0
C_22175 N_2174072505_91d9843 N_2174072504_a64400d 27.0000 0.0130 0.0000 0.0000 0.0 0.0
C_22176 N_2174072505_91d9843 N_2174072504_a64400d 28.4000 0.0130 0.0000 0.0000 0.0 0.0
C_22177 N_2174072505_91d9843 N_2174072504_a64400d 27.9000 0.0130 0.0000 0.0000 0.0 0.0
C_22178 N_2174072505_91d9843 N_2174072504_a64400d 30.2000 0.0130 0.0000 0.0000 0.0 0.0
C_22187 N_2174073401_4b0a359 N_2174072404_8ce77f6 38.3000 0.0130 0.0000 0.0000 0.0 0.0
C_22188 N_2174073402_4d5a704 N_2174073403_e32d774 27.2000 0.0130 0.0000 0.0000 0.0 0.0
C_22189 N_2174073403_e32d774 N_2174073506_b13d289 33.2000 0.0130 0.0000 0.1500 0.0 0.0
C_22190 N_2174073501_864fcb0 N_2174072503_f5fe30b 15.0000 0.0160 0.0500 0.0000 0.0 0.0
C_22191 N_2174073502_690368b N_2174073501_864fcb0 23.5000 0.0130 0.0000 0.0350 0.0 0.0
C_22192 N_2174073503_8a28fea N_2174073502_690368b 21.0000 0.0130 0.0000 0.0000 0.0 0.0
C_22193 N_2174073504_bdda676 N_2174073506_b13d289 35.6000 0.0130 0.0000 0.0000 0.0 0.0
C_22194 N_2174073505_09b1520 N_2174073501_864fcb0 54.9000 0.0130 0.0000 0.0000 0.0 0.0
C_22195 N_2174073506_b13d289 N_2174074502_74d6112 27.5000 0.0130 0.0000 0.0000 0.0 0.0
C_22196 N_2174073507_6ff82e4 N_2174072505_91d9843 81.1000 0.0160 0.0000 0.0000 0.0 0.0
C_22207 N_2174074501_6aa53dd N_2174074506_80711e8 15.5000 0.0130 0.0000 0.0000 0.0 0.0
C_22208 N_2174074502_74d6112 N_2174074504_9f50a88 13.8000 0.0130 0.0000 0.0000 0.0 0.0
C_22209 N_2174074503_80f6ba9 N_2174073505_09b1520 52.3000 0.0130 0.0000 0.0000 0.0 0.0
C_22210 N_2174074504_9f50a88 N_2174074503_80f6ba9 9.8000 0.0130 0.0000 1.2000 0.0 0.0
C_22211 N_2174074505_7b17eae N_2174074503_80f6ba9 12.5000 0.0130 0.0000 0.8000 0.0 0.0
C_22212 N_2174074506_80711e8 N_2174074509_f168de7 25.8000 0.0130 0.0000 0.1500 0.0 0.0
C_22213 N_2174074507_d25c302 N_2174074505_7b17eae 20.2000 0.0130 0.0000 0.0000 0.0 0.0
C_22214 N_2174074508_c1e7314 N_2174074502_74d6112 32.8000 0.0130 0.0000 0.1500 0.0 0.0
C_22215 N_2174074509_f168de7 N_2174074511_7782fbf 29.4000 0.0130 0.0000 0.3520 0.0 0.0
C_22216 N_2174074510_f8c1891 N_2174074507_d25c302 22.6000 0.0130 0.0000 0.0000 0.0 0.0
C_22217 N_2174074511_7782fbf N_2174074513_0c26500 11.9000 0.0130 0.0000 0.8320 0.0 0.0
C_22218 N_2174074512_00707bb N_2174074511_7782fbf 13.0000 0.0130 0.0000 0.3520 0.0 0.0
C_22219 N_2174074513_0c26500 N_2174074510_f8c1891 3.8000 0.0130 0.8320 0.0000 0.0 0.0
C_22220 N_2174074513_0c26500 N_2174073507_6ff82e4 163.9000 0.0160 0.0000 0.0000 0.0 0.0
C_22241 N_2174075501_09ab23f N_2174074512_00707bb 26.1000 0.0130 0.0000 0.0000 0.0 0.0
C_22242 N_2174075502_c6a0582 N_2174075501_09ab23f 29.3000 0.0130 0.0000 0.0000 0.0 0.0
C_22243 N_2174075503_a0b769a N_2174075502_c6a0582 20.2000 0.0130 0.0000 0.0000 0.0 0.0
C_22244 N_2174075504_9ada7e9 N_2174075503_a0b769a 29.2000 0.0130 0.0000 0.0000 0.0 0.0
C_22245 N_2174075505_c9d1c39 N_2174074513_0c26500 96.0000 0.0160 0.0000 0.0000 0.0 0.0
C_22277 N_2174076501_e528d4f N_2174075504_9ada7e9 41.8000 0.0130 0.0000 0.0000 0.0 0.0
C_22278 N_2174076502_d2e3457 N_2174076501_e528d4f 21.6000 0.0130 0.0000 0.0000 0.0 0.0
C_22279 N_2174076503_e468bbd N_2174076502_d2e3457 23.4000 0.0130 0.0000 0.0000 0.0 0.0
C_22280 N_2174076504_e017626 N_2174076503_e468bbd 21.1000 0.0130 0.0000 0.0000 0.0 0.0
C_22281 N_2174076505_bb124c2 N_2174075505_c9d1c39 111.0000 0.0160 0.0000 0.0000 0.0 0.0
C_22298 N_2174077501_29d0148 N_2174076504_e017626 26.8000 0.0130 0.0000 0.1000 0.0 0.0
C_22299 N_2174077502_4b0e57f N_2174077501_29d0148 25.4000 0.0130 0.0000 0.0000 0.0 0.0
C_22300 N_2174077503_03d62d4 N_2174077502_4b0e57f 24.0000 0.0130 0.0000 0.0000 0.0 0.0
C_22301 N_2174077504_3ad7690 N_2174077503_03d62d4 22.5000 0.0130 0.0000 0.0000 0.0 0.0
C_22302 N_2174077505_b0b8470 N_2174076505_bb124c2 91.9000 0.0160 0.0000 0.0000 0.0 0.0
C_22303 N_2174078001_dd18539 N_2174078003_0110b37 35.3000 0.0160 0.0000 0.0000 0.0 0.0
C_22304 N_2174078002_c315785 N_2174078004_93b605e 20.1000 0.0130 0.0000 0.0000 0.0 0.0
C_22305 N_2174078003_0110b37 N_2174078006_3a2d6f1 46.9000 0.0160 0.0000 0.0000 0.0 0.0
C_22306 N_2174078004_93b605e N_2174078005_1707453 24.6000 0.0130 0.0000 0.0000 0.0 0.0
C_22307 N_2174078005_1707453 N_2174078006_3a2d6f1 26.6000 0.0130 0.0000 0.0000 0.0 0.0
C_22308 N_2174078006_3a2d6f1 N_2174078008_6ed1690 16.6000 0.0160 0.0000 0.0000 0.0 0.0
C_22309 N_2174078007_077b319 N_2174078107_85cfd98 7.9000 0.0130 0.0000 0.0000 0.0 0.0
C_22310 N_2174078007_077b319 N_2174078101_9a2bdc0 20.8000 0.0160 0.9280 0.0000 0.0 0.0
C_22311 N_2174078008_6ed1690 N_2174078009_987a27a 3.6000 0.0160 0.0000 0.0000 0.0 0.0
C_22312 N_2174078008_6ed1690 N_2174078007_077b319 2.3000 0.0160 0.9280 0.9280 0.0 0.0
C_22313 N_2174078009_987a27a N_2174078111_58acef3 30.2000 0.0160 0.0000 0.0000 0.0 0.0
C_22314 N_2174078010_ebd909d N_2174078008_6ed1690 23.2000 0.0250 0.0000 0.9280 0.0 0.0
C_22315 N_2174078101_9a2bdc0 N_2174078103_810fcf7 12.7000 0.0250 0.2000 0.0000 0.0 0.0
C_22316 N_2174078103_810fcf7 N_2174078105_1648b80 19.2000 0.0250 0.0000 0.0000 0.0 0.0
C_22317 N_2174078105_1648b80 N_2174078108_7788b80 26.0000 0.0250 0.0000 0.0000 0.0 0.0
C_22318 N_2174078107_85cfd98 N_2174078110_dfebf00 26.1000 0.0130 0.0000 0.0000 0.0 0.0
C_22319 N_2174078108_7788b80 N_2174078109_443280f 24.4000 0.0250 0.0000 0.0000 0.0 0.0
C_22320 N_2174078109_443280f N_2174078203_1a38703 27.3000 0.0250 0.0000 0.0000 0.0 0.0
C_22321 N_2174078110_dfebf00 N_2174079101_0bbf66b 28.7000 0.0130 0.0000 0.1000 0.0 0.0
C_22322 N_2174078111_58acef3 N_2174079102_aceac56 33.1000 0.0160 0.0000 0.0000 0.0 0.0
C_22323 N_2174078201_215ac21 N_2174078202_b9eac77 24.5000 0.0250 0.0000 0.0000 0.0 0.0
C_22324 N_2174078202_b9eac77 N_2174078204_add6a8f 27.8000 0.0250 0.0000 0.0000 0.0 0.0
C_22325 N_2174078203_1a38703 N_2174078201_215ac21 20.9000 0.0250 0.0000 0.0000 0.0 0.0
C_22326 N_2174078204_add6a8f N_2174078205_2d9ce33 13.3000 0.0250 0.0000 0.0000 0.0 0.0
C_22327 N_2174078205_2d9ce33 N_2174079303_6589684 35.7000 0.0250 0.0000 0.0000 0.0 0.0
C_22329 N_2174078302_61ea8da N_2174078303_570bc4c 4.1000 0.0130 0.0000 0.0000 0.0 0.0
C_22330 N_2174078303_570bc4c N_2174078308_4577d82 36.4000 0.0130 0.0000 0.0000 0.0 0.0
C_22331 N_2174078304_95e0b5e N_2174078305_3db7c74 17.6000 0.0130 0.0000 0.6660 0.0 0.0
C_22332 N_2174078305_3db7c74 N_2174078307_5c9d15f 12.9000 0.0130 0.0000 0.0000 0.0 0.0
C_22333 N_2174078306_896d62d N_2174079306_fcee123 67.5000 0.0130 0.0000 0.0000 0.0 0.0
C_22334 N_2174078307_5c9d15f N_2174079301_e9933f0 22.5000 0.0130 0.0000 0.0000 0.0 0.0
C_22335 N_2174078308_4577d82 N_2174078309_17edf1a 13.9000 0.0130 0.0000 0.0000 0.0 0.0
C_22336 N_2174078309_17edf1a N_2174079302_7a8eb2a 16.5000 0.0130 0.0000 0.0000 0.0 0.0
C_22337 N_2174078401_25ed1a3 N_2174077504_3ad7690 22.2000 0.0130 0.0000 0.0000 0.0 0.0
C_22341 N_2174078405_5ac499e N_2174078401_25ed1a3 16.1000 0.0130 0.0000 0.0000 0.0 0.0
C_22343 N_2174078407_244c6bc N_2174077505_b0b8470 108.6000 0.0160 0.0000 0.0000 0.0 0.0
C_22345 N_2174078409_fbfa0b1 N_2174078405_5ac499e 32.6000 0.0130 0.0000 0.0000 0.0 0.0
C_22346 N_2174078410_1e58c1e N_2174078306_896d62d 16.3000 0.0130 0.0000 0.0000 0.0 0.0
C_22348 N_2174078412_df54b12 N_2174078409_fbfa0b1 17.6000 0.0130 0.0000 0.0000 0.0 0.0
C_22349 N_2174078413_906f4ba N_2174078407_244c6bc 9.8000 0.0160 0.0000 0.0000 0.0 0.0
C_22359 N_2174079001_2f85de4 N_2174078010_ebd909d 22.8000 0.0250 0.0000 0.0000 0.0 0.0
C_22360 N_2174079003_f93006e N_2174078008_6ed1690 46.4000 0.0160 0.0000 0.5280 0.0 0.0
C_22361 N_2174079005_9d537ae N_2174079001_2f85de4 14.0000 0.0250 0.0000 0.0000 0.0 0.0
C_22362 N_2174079007_51e5a2d N_2174079003_f93006e 13.3000 0.0160 0.0000 0.0000 0.0 0.0
C_22363 N_2174079008_0fd7f6a N_2174079007_51e5a2d 30.0000 0.0160 0.0000 0.2000 0.0 0.0
C_22365 N_2174079010_9c74b09 N_2174079008_0fd7f6a 33.8000 0.0130 0.0000 0.7000 0.0 0.0
C_22368 N_2174079101_0bbf66b N_2174079103_a357927 24.5000 0.0160 0.0000 0.0000 0.0 0.0
C_22369 N_2174079102_aceac56 N_2174079104_2254baa 16.1000 0.0130 0.0500 0.0000 0.0 0.0
C_22370 N_2174079102_aceac56 N_2174079101_0bbf66b 5.1000 0.0160 0.0000 0.1000 0.0 0.0
C_22371 N_2174079103_a357927 N_2174079201_57a8017 35.2000 0.0160 0.0000 0.0000 0.0 0.0
C_22372 N_2174079104_2254baa N_2174079105_98ab8fe 4.1000 0.0130 0.0000 0.0000 0.0 0.0
C_22373 N_2174079105_98ab8fe N_2174079106_5141dd1 12.0000 0.0130 0.0000 0.0000 0.0 0.0
C_22374 N_2174079106_5141dd1 N_2174079202_84ff5ce 23.2000 0.0130 0.0000 0.0000 0.0 0.0
C_22375 N_2174079201_57a8017 N_2174079205_85d07d3 29.4000 0.0160 0.0000 0.1000 0.0 0.0
C_22376 N_2174079202_84ff5ce N_2174079203_c7fb5ab 10.3000 0.0130 0.0000 0.0000 0.0 0.0
C_22377 N_2174079203_c7fb5ab N_2174079204_00f0299 9.5000 0.0130 0.0000 0.0000 0.0 0.0
C_22378 N_2174079204_00f0299 N_2174079205_85d07d3 10.6000 0.0130 0.0000 0.2110 0.0 0.0
C_22379 N_2174079205_85d07d3 N_2174079206_3591fa1 18.1000 0.0160 0.0000 0.0000 0.0 0.0
C_22380 N_2174079206_3591fa1 N_2174079207_dc5f779 23.6000 0.0160 0.0000 0.0000 0.0 0.0
C_22381 N_2174079207_dc5f779 N_2174079209_e8a63d7 11.3000 0.0160 0.0000 0.1000 0.0 0.0
C_22382 N_2174079208_2a5516d N_2174079314_67018f5 51.1000 0.0130 0.0000 0.0000 0.0 0.0
C_22383 N_2174079209_e8a63d7 N_2174079208_2a5516d 3.4000 0.0130 0.3000 0.0000 0.0 0.0
C_22384 N_2174079209_e8a63d7 N_2174079210_5adebb6 20.7000 0.0160 0.0000 0.0000 0.0 0.0
C_22385 N_2174079210_5adebb6 N_2174079315_e8fb989 29.6000 0.0160 0.0000 0.0000 0.0 0.0
C_22386 N_2174079301_e9933f0 N_2174079304_e10fed8 21.1000 0.0130 0.0000 0.0000 0.0 0.0
C_22387 N_2174079302_7a8eb2a N_2174079305_fa371f3 11.3000 0.0130 0.0000 0.0000 0.0 0.0
C_22388 N_2174079303_6589684 N_2174079309_228199b 38.6000 0.0250 0.0000 0.0000 0.0 0.0
C_22389 N_2174079304_e10fed8 N_2174079308_9cc8a30 12.3000 0.0130 0.0000 0.0000 0.0 0.0
C_22390 N_2174079305_fa371f3 N_2174079307_e581276 9.2000 0.0130 0.0000 0.0000 0.0 0.0
C_22391 N_2174079306_fcee123 N_2174079402_fb992b1 43.7000 0.0130 0.0000 0.3140 0.0 0.0
C_22392 N_2174079307_e581276 N_2174079310_888befc 17.9000 0.0130 0.0000 0.5000 0.0 0.0
C_22393 N_2174079308_9cc8a30 N_2174079402_fb992b1 45.4000 0.0130 0.0000 0.0670 0.0 0.0
C_22394 N_2174079309_228199b N_2174079310_888befc 14.4000 0.0250 0.0000 1.4800 0.0 0.0
C_22395 N_2174079310_888befc N_2174079313_2799e6c 41.5000 0.0160 0.0000 0.0520 0.0 0.0
C_22396 N_2174079311_8c105f4 N_2174079310_888befc 13.2000 0.0130 0.0000 0.8000 0.0 0.0
C_22397 N_2174079313_2799e6c N_2174079403_1dd0f17 20.0000 0.0160 0.0520 0.0000 0.0 0.0
C_22398 N_2174079313_2799e6c N_2174079402_fb992b1 14.6000 0.0160 0.0000 0.0000 0.0 0.0
C_22399 N_2174079314_67018f5 N_2174079316_eab4b76 25.6000 0.0130 0.0000 0.0000 0.0 0.0
C_22400 N_2174079315_e8fb989 N_2174079317_88abc5b 27.9000 0.0160 0.0000 0.0000 0.0 0.0
C_22401 N_2174079316_eab4b76 N_2174079311_8c105f4 35.7000 0.0130 0.0000 0.0000 0.0 0.0
C_22402 N_2174079317_88abc5b N_2175070301_9c1479a 40.7000 0.0160 0.0000 0.5420 0.0 0.0
C_22403 N_2174079401_a2156fa N_2174078413_906f4ba 72.4000 0.0160 0.0000 0.0000 0.0 0.0
C_22404 N_2174079402_fb992b1 N_2175070401_4d9fc13 58.2000 0.0130 0.3140 0.0000 0.0 0.0
C_22405 N_2174079402_fb992b1 N_2175070402_8dbe0be 57.3000 0.0130 0.2640 0.0000 0.0 0.0
C_22406 N_2174079402_fb992b1 N_2174079401_a2156fa 39.4000 0.0160 0.0000 0.0000 0.0 0.0
C_22407 N_2174079403_1dd0f17 N_2175070403_84204fd 27.2000 0.0160 0.0000 0.0000 0.0 0.0
C_22604 N_2174139701_202041f N_2174139702_e60658c 30.0000 0.0160 0.0000 0.0000 0.0 0.0
C_22605 N_2174139702_e60658c N_2175130701_3801d9b 29.8000 0.0160 0.0000 0.0000 0.0 0.0
C_22606 N_2174139801_3d230fb N_2174139701_202041f 30.1000 0.0160 0.0000 0.0000 0.0 0.0
C_22611 N_2174148401_d3a2233 N_2174149401_23afa33 24.2000 0.0250 0.0000 0.0000 0.0 0.0
C_22612 N_2174149301_bd9125d N_2174149302_eb78ff3 16.5000 0.0250 0.0000 0.0000 0.0 0.0
C_22613 N_2174149302_eb78ff3 N_2174149303_969e18c 15.1000 0.0250 0.0000 0.0000 0.0 0.0
C_22614 N_2174149303_969e18c N_2175140301_05bf33c 25.0000 0.0250 0.0000 0.0000 0.0 0.0
C_22615 N_2174149401_23afa33 N_2174149402_0a0c8af 16.0000 0.0250 0.0000 0.0000 0.0 0.0
C_22616 N_2174149402_0a0c8af N_2174149404_a759b18 19.9000 0.0250 0.0000 0.0000 0.0 0.0
C_22617 N_2174149403_103f132 N_2174149301_bd9125d 19.9000 0.0250 0.0000 0.0000 0.0 0.0
C_22618 N_2174149404_a759b18 N_2174149403_103f132 24.5000 0.0250 0.0000 0.0000 0.0 0.0
C_23916 N_2175049801_cf91e2b N_2175049802_32ce649 19.5000 0.0250 0.0000 0.0000 0.0 0.0
C_23917 N_2175049802_32ce649 N_2175049803_9659a48 19.9000 0.0250 0.0000 0.0000 0.0 0.0
C_23918 N_2175049803_9659a48 N_2175049902_3dfaed5 21.7000 0.0250 0.0000 0.0000 0.0 0.0
C_23919 N_2175049901_1184059 N_2175059001_81c8bd6 19.9000 0.0250 0.0000 0.0000 0.0 0.0
C_23920 N_2175049902_3dfaed5 N_2175049903_3adb438 19.6000 0.0250 0.0000 0.0000 0.0 0.0
C_23921 N_2175049903_3adb438 N_2175049904_1bcb5ed 18.9000 0.0250 0.0000 0.0000 0.0 0.0
C_23922 N_2175049904_1bcb5ed N_2175049905_5991261 19.5000 0.0250 0.0000 0.0000 0.0 0.0
C_23923 N_2175049905_5991261 N_2175049906_c27e97d 20.1000 0.0250 0.0000 0.0000 0.0 0.0
C_23924 N_2175049906_c27e97d N_2175059001_81c8bd6 18.7000 0.0250 0.0000 0.5400 0.0 0.0
C_23925 N_2175049907_8c445e9 N_2175049908_9892e63 19.9000 0.0160 0.0000 0.0000 0.0 0.0
C_23926 N_2175049908_9892e63 N_2176040901_c0caa25 20.0000 0.0160 0.0000 0.0000 0.0 0.0
C_23945 N_2175050401_c353dd9 N_2175050402_c703f96 28.9000 0.0160 0.0000 0.0000 0.0 0.0
C_23946 N_2175050402_c703f96 N_2175050404_2a2f988 33.5000 0.0160 0.0000 0.0000 0.0 0.0
C_23947 N_2175050403_c1aadea N_2175050405_cef434a 33.8000 0.0160 0.0000 0.0000 0.0 0.0
C_23948 N_2175050404_2a2f988 N_2175050408_9066a79 20.2000 0.0160 0.0000 0.0000 0.0 0.0
C_23949 N_2175050405_cef434a N_2175050407_1b81e1e 19.1000 0.0160 0.0000 0.0000 0.0 0.0
C_23951 N_2175050407_1b81e1e N_2175051401_e677a6a 24.1000 0.0160 0.0000 0.0000 0.0 0.0
C_23953 N_2175050408_9066a79 N_2175051402_0784d50 24.3000 0.0160 0.0000 0.0000 0.0 0.0
C_23954 N_2175050409_13778e4 N_2175050408_9066a79 18.1000 0.0130 0.0000 0.9130 0.0 0.0
C_23955 N_2175050501_a6ff929 N_2175050409_13778e4 30.1000 0.0130 0.0000 0.0000 0.0 0.0
C_23956 N_2175050502_ddfafd4 N_2175050501_a6ff929 32.2000 0.0130 0.0000 0.0000 0.0 0.0
C_23957 N_2175050503_a89c485 N_2175050502_ddfafd4 33.7000 0.0130 0.0000 0.0000 0.0 0.0
C_23996 N_2175051401_e677a6a N_2175051403_5cda202 23.1000 0.0160 0.0000 0.0000 0.0 0.0
C_23997 N_2175051402_0784d50 N_2175051404_101b52f 25.1000 0.0160 0.0000 0.0000 0.0 0.0
C_23998 N_2175051403_5cda202 N_2175051405_f1df2c2 33.3000 0.0160 0.0000 0.0000 0.0 0.0
C_23999 N_2175051404_101b52f N_2175051406_abe4972 32.3000 0.0160 0.0000 0.0000 0.0 0.0
C_24000 N_2175051405_f1df2c2 N_2175051407_1d17f29 24.5000 0.0160 0.0000 0.0000 0.0 0.0
C_24001 N_2175051406_abe4972 N_2175051408_816c586 24.3000 0.0160 0.0000 0.0000 0.0 0.0
C_24002 N_2175051407_1d17f29 N_2175052402_49c455b 38.9000 0.0160 0.0000 0.0000 0.0 0.0
C_24003 N_2175051408_816c586 N_2175052401_ca8926b 25.6000 0.0160 0.0000 0.0000 0.0 0.0
C_24023 N_2175052002_b84db3c N_2175052003_5d1678e 39.2000 0.0130 0.0000 0.0000 0.0 0.0
C_24024 N_2175052003_5d1678e N_2175052004_765711b 34.7000 0.0130 0.0000 0.0000 0.0 0.0
C_24025 N_2175052004_765711b N_2175053001_ffce378 30.2000 0.0130 0.0000 0.0000 0.0 0.0
C_24030 N_2175052401_ca8926b N_2175052403_e050b19 32.0000 0.0160 0.0000 0.0000 0.0 0.0
C_24031 N_2175052402_49c455b N_2175052404_a5b102a 27.9000 0.0160 0.0000 0.0000 0.0 0.0
C_24032 N_2175052403_e050b19 N_2175052406_add4098 27.7000 0.0160 0.0000 0.0000 0.0 0.0
C_24033 N_2175052404_a5b102a N_2175052407_571ea9c 22.7000 0.0160 0.0000 0.0000 0.0 0.0
C_24035 N_2175052406_add4098 N_2175053402_253f22e 34.4000 0.0160 0.0000 0.0000 0.0 0.0
C_24036 N_2175052407_571ea9c N_2175053401_307149d 29.9000 0.0160 0.0000 0.0000 0.0 0.0
C_24044 N_2175053001_ffce378 N_2175053002_608cfd0 34.3000 0.0130 0.0000 0.0000 0.0 0.0
C_24045 N_2175053002_608cfd0 N_2175053003_cc9fee4 24.3000 0.0130 0.0000 0.0000 0.0 0.0
C_24046 N_2175053003_cc9fee4 N_2175054001_f54686e 21.6000 0.0130 0.0000 0.0000 0.0 0.0
C_24050 N_2175053401_307149d N_2175053403_fc7ac8d 33.9000 0.0160 0.0000 0.0000 0.0 0.0
C_24051 N_2175053402_253f22e N_2175053404_3ca4e6d 34.1000 0.0160 0.0000 0.0000 0.0 0.0
C_24052 N_2175053403_fc7ac8d N_2175053405_d347713 30.0000 0.0160 0.0000 0.0000 0.0 0.0
C_24053 N_2175053404_3ca4e6d N_2175053406_47a94a5 30.7000 0.0160 0.0000 0.0000 0.0 0.0
C_24054 N_2175053405_d347713 N_2175054401_3bde289 26.9000 0.0160 0.0000 0.0000 0.0 0.0
C_24055 N_2175053406_47a94a5 N_2175054402_9f097eb 26.9000 0.0160 0.0000 0.0000 0.0 0.0
C_24066 N_2175054001_f54686e N_2175054002_abf7b89 14.6000 0.0130 0.0000 1.7600 0.0 0.0
C_24067 N_2175054002_abf7b89 N_2175054003_b3ded0e 16.6000 0.0250 0.0000 0.0000 0.0 0.0
C_24068 N_2175054003_b3ded0e N_2175054004_5b81dbc 19.8000 0.0250 0.0000 0.0000 0.0 0.0
C_24069 N_2175054004_5b81dbc N_2175054005_51a5584 20.4000 0.0250 0.0000 0.0000 0.0 0.0
C_24070 N_2175054005_51a5584 N_2175054006_5a9b8c3 17.3000 0.0250 0.0000 0.0000 0.0 0.0
C_24071 N_2175054006_5a9b8c3 N_2175055001_0b24f59 20.3000 0.0250 0.0000 0.0000 0.0 0.0
C_24093 N_2175054401_3bde289 N_2175054407_db1f551 52.1000 0.0160 0.0000 0.0000 0.0 0.0
C_24094 N_2175054402_9f097eb N_2175054403_d6e2821 31.2000 0.0160 0.0000 0.0000 0.0 0.0
C_24095 N_2175054403_d6e2821 N_2175054412_ab64442 33.2000 0.0160 0.0000 0.0000 0.0 0.0
C_24099 N_2175054407_db1f551 N_2175054413_799d305 16.7000 0.0160 0.0000 0.0000 0.0 0.0
C_24104 N_2175054412_ab64442 N_2175054420_cc7a013 16.5000 0.0160 0.0000 0.0000 0.0 0.0
C_24105 N_2175054413_799d305 N_2175054418_37d7f57 13.5000 0.0160 0.0000 0.0000 0.0 0.0
C_24111 N_2175054418_37d7f57 N_2175055403_945499f 62.3000 0.0160 0.0000 0.7000 0.0 0.0
C_24113 N_2175054420_cc7a013 N_2175055401_66f9b19 22.9000 0.0160 0.0000 0.0000 0.0 0.0
C_24114 N_2175054501_6204b61 N_2175054412_ab64442 25.3000 0.0130 0.0000 0.2340 0.0 0.0
C_24115 N_2175054502_59ff116 N_2175054501_6204b61 30.6000 0.0130 0.0000 0.0000 0.0 0.0
C_24116 N_2175054503_5268cf1 N_2175054502_59ff116 37.0000 0.0130 0.0000 0.0000 0.0 0.0
C_24117 N_2175054504_58a7904 N_2175054503_5268cf1 24.7000 0.0130 0.0000 0.0000 0.0 0.0
C_24118 N_2175054601_6dacbe4 N_2175054602_e89206f 27.9000 0.0130 0.0000 0.0000 0.0 0.0
C_24119 N_2175054602_e89206f N_2175054603_87c21e5 34.6000 0.0130 0.0000 0.0000 0.0 0.0
C_24120 N_2175054603_87c21e5 N_2175054504_58a7904 23.7000 0.0130 0.0000 0.0000 0.0 0.0
C_24126 N_2175054705_9df5a67 N_2175054601_6dacbe4 54.8000 0.0130 0.0000 0.0000 0.0 0.0
C_24138 N_2175055001_0b24f59 N_2175055002_7434354 19.2000 0.0250 0.0000 0.0000 0.0 0.0
C_24139 N_2175055002_7434354 N_2175055003_3d6ef67 20.1000 0.0250 0.0000 0.0000 0.0 0.0
C_24140 N_2175055003_3d6ef67 N_2175055004_7109728 19.7000 0.0250 0.0000 0.0000 0.0 0.0
C_24141 N_2175055004_7109728 N_2175055005_eb75b17 19.5000 0.0250 0.0000 0.0000 0.0 0.0
C_24142 N_2175055005_eb75b17 N_2175055006_8158f4c 18.9000 0.0250 0.0000 0.0000 0.0 0.0
C_24143 N_2175055006_8158f4c N_2175056001_5a19f5b 20.7000 0.0250 0.0000 0.0000 0.0 0.0
C_24144 N_2175055401_66f9b19 N_2175055403_945499f 38.8000 0.0160 0.0000 0.4000 0.0 0.0
C_24146 N_2175055403_945499f N_2175055404_ff770f9 8.4000 0.0250 0.0000 0.0000 0.0 0.0
C_24147 N_2175055404_ff770f9 N_2175055405_3178c09 5.3000 0.0250 0.0000 0.0000 0.0 0.0
C_24148 N_2175055405_3178c09 N_2175055406_fcfbdf9 31.6000 0.0250 0.0000 0.0000 0.0 0.0
C_24149 N_2175055406_fcfbdf9 N_2175055501_85a0e63 33.5000 0.0250 0.0000 0.0000 0.0 0.0
C_24150 N_2175055501_85a0e63 N_2175055502_50bd2fe 22.7000 0.0250 0.0000 0.0000 0.0 0.0
C_24151 N_2175055502_50bd2fe N_2175055503_855530e 17.2000 0.0250 0.0000 0.0000 0.0 0.0
C_24152 N_2175055503_855530e N_2175056501_84f2a28 19.7000 0.0250 0.0000 0.0000 0.0 0.0
C_24154 N_2175055701_8535fcb N_2175054420_cc7a013 267.3000 0.0130 0.0000 0.5480 0.0 0.0
C_24158 N_2175056001_5a19f5b N_2175056002_ac28031 19.4000 0.0250 0.0000 0.0000 0.0 0.0
C_24159 N_2175056002_ac28031 N_2175056003_31d10b5 8.9000 0.0250 0.0000 0.0000 0.0 0.0
C_24160 N_2175056003_31d10b5 N_2175056004_6604f1b 12.2000 0.0160 0.0000 0.0000 0.0 0.0
C_24161 N_2175056004_6604f1b N_2175056005_d72127e 17.9000 0.0250 0.0000 0.0000 0.0 0.0
C_24162 N_2175056005_d72127e N_2175056006_edb2400 19.9000 0.0250 0.0000 0.0000 0.0 0.0
C_24163 N_2175056006_edb2400 N_2175057001_8afca3a 19.1000 0.0250 0.0000 0.0000 0.0 0.0
C_24164 N_2175056501_84f2a28 N_2175056502_0892b71 21.3000 0.0250 0.0000 0.0000 0.0 0.0
C_24165 N_2175056502_0892b71 N_2175056601_3bb7f5e 21.4000 0.0250 0.0000 0.0000 0.0 0.0
C_24166 N_2175056601_3bb7f5e N_2175056603_6c5abc0 24.1000 0.0250 0.0000 0.0000 0.0 0.0
C_24167 N_2175056602_95648e5 N_2175056703_276756e 19.0000 0.0250 0.0000 0.0000 0.0 0.0
C_24169 N_2175056603_6c5abc0 N_2175056604_bb00d99 22.5000 0.0250 0.0000 0.0000 0.0 0.0
C_24170 N_2175056604_bb00d99 N_2175056602_95648e5 25.7000 0.0250 0.0000 0.0000 0.0 0.0
C_24172 N_2175056702_d30b2c4 N_2175056704_f77d337 23.7000 0.0250 0.0000 0.0000 0.0 0.0
C_24173 N_2175056703_276756e N_2175056702_d30b2c4 42.4000 0.0250 0.0000 0.0000 0.0 0.0
C_24174 N_2175056704_f77d337 N_2175056705_16f32cc 24.3000 0.0250 0.0000 0.0000 0.0 0.0
C_24175 N_2175056705_16f32cc N_2175056706_5c09a05 6.6000 0.0160 0.0000 0.0000 0.0 0.0
C_24176 N_2175056706_5c09a05 N_2175056802_6b8fade 3.6000 0.0160 0.0000 0.0000 0.0 0.0
C_24179 N_2175056802_6b8fade N_2175056803_1d35822 17.8000 0.0250 0.0000 0.0000 0.0 0.0
C_24180 N_2175056803_1d35822 N_2175056804_1f9a69c 16.5000 0.0250 0.0000 0.0000 0.0 0.0
C_24181 N_2175056804_1f9a69c N_2175056806_e1da8da 18.2000 0.0250 0.0000 0.0000 0.0 0.0
C_24183 N_2175056806_e1da8da N_2175057801_186a472 19.7000 0.0250 0.0000 0.0000 0.0 0.0
C_24185 N_2175057001_8afca3a N_2175057002_e634b11 19.3000 0.0250 0.0000 0.0000 0.0 0.0
C_24186 N_2175057002_e634b11 N_2175057003_6fd4194 19.6000 0.0250 0.0000 0.0000 0.0 0.0
C_24187 N_2175057003_6fd4194 N_2175057004_4000c58 20.2000 0.0250 0.0000 0.0000 0.0 0.0
C_24188 N_2175057004_4000c58 N_2175057005_ae823d7 4.1000 0.0250 0.0000 0.0000 0.0 0.0
C_24189 N_2175057005_ae823d7 N_2175057006_b1e0fd6 15.5000 0.0250 0.0000 0.0000 0.0 0.0
C_24190 N_2175057006_b1e0fd6 N_2175058001_63c365f 19.4000 0.0250 0.0000 0.0000 0.0 0.0
C_24192 N_2175057702_9de957d N_2175058701_38d3c2a 19.6000 0.0250 0.0000 0.0000 0.0 0.0
C_24193 N_2175057801_186a472 N_2175057802_42ad562 20.0000 0.0250 0.0000 0.0000 0.0 0.0
C_24194 N_2175057802_42ad562 N_2175057803_0535a5d 20.3000 0.0250 0.0000 0.0000 0.0 0.0
C_24195 N_2175057803_0535a5d N_2175057804_dad5bb7 20.3000 0.0250 0.0000 0.0000 0.0 0.0
C_24196 N_2175057804_dad5bb7 N_2175057702_9de957d 19.5000 0.0250 0.0000 0.0000 0.0 0.0
C_24197 N_2175058001_63c365f N_2175058002_91e40e2 18.7000 0.0250 0.0000 0.0000 0.0 0.0
C_24198 N_2175058002_91e40e2 N_2175058003_8b5b549 17.2000 0.0250 0.0000 0.0000 0.0 0.0
C_24199 N_2175058003_8b5b549 N_2175058004_5b58a21 19.3000 0.0250 0.0000 0.0000 0.0 0.0
C_24200 N_2175058004_5b58a21 N_2175058005_56f8f7c 20.3000 0.0250 0.0000 0.0000 0.0 0.0
C_24201 N_2175058005_56f8f7c N_2175049901_1184059 19.9000 0.0250 0.0000 0.0000 0.0 0.0
C_24202 N_2175058701_38d3c2a N_2175058702_17677a5 20.0000 0.0250 0.0000 0.0000 0.0 0.0
C_24203 N_2175058702_17677a5 N_2175058703_113fc1d 3.2000 0.0250 0.0000 0.0000 0.0 0.0
C_24204 N_2175058703_113fc1d N_2175058704_c7d79dd 5.2000 0.0250 0.0000 0.0000 0.0 0.0
C_24205 N_2175058704_c7d79dd N_2175058705_e50d357 13.4000 0.0250 0.0000 0.0000 0.0 0.0
C_24206 N_2175058705_e50d357 N_2175058706_fa82e33 18.5000 0.0250 0.0000 0.0000 0.0 0.0
C_24207 N_2175058706_fa82e33 N_2175058708_8c98a8e 19.2000 0.0250 0.0000 0.0000 0.0 0.0
C_24209 N_2175058708_8c98a8e N_2175059701_a9292b0 20.6000 0.0250 0.0000 0.0000 0.0 0.0
C_24210 N_2175058901_e290b18 N_2175058903_2dbc4b7 44.7000 0.0250 0.0000 0.0000 0.0 0.0
C_24211 N_2175058902_12d11c0 N_2175058901_e290b18 17.8000 0.0250 0.0000 0.0000 0.0 0.0
C_24212 N_2175058903_2dbc4b7 N_2175059901_447068c 47.4000 0.0250 0.0000 0.0000 0.0 0.0
C_24213 N_2175059001_81c8bd6 N_2175059002_6309a0e 20.4000 0.0160 0.0000 0.0000 0.0 0.0
C_24214 N_2175059002_6309a0e N_2175059003_1db34ad 20.0000 0.0160 0.0000 0.0000 0.0 0.0
C_24215 N_2175059003_1db34ad N_2175049907_8c445e9 18.4000 0.0160 0.0000 0.0000 0.0 0.0
C_24216 N_2175059701_a9292b0 N_2175059702_e0c74a2 20.7000 0.0250 0.0000 0.0000 0.0 0.0
C_24217 N_2175059702_e0c74a2 N_2175059703_e597f83 20.9000 0.0250 0.0000 0.0000 0.0 0.0
C_24218 N_2175059703_e597f83 N_2175059704_4c3691c 19.8000 0.0250 0.0000 0.0000 0.0 0.0
C_24219 N_2175059704_4c3691c N_2175059705_9b17945 19.3000 0.0250 0.0000 0.0000 0.0 0.0
C_24220 N_2175059705_9b17945 N_2175059706_f764351 20.3000 0.0250 0.0000 0.0000 0.0 0.0
C_24221 N_2175059706_f764351 N_2176050701_88e71af 15.3000 0.0250 0.0000 0.0000 0.0 0.0
C_24222 N_2175059801_420cb31 N_2176050801_cbc067a 26.2000 0.0250 0.0000 0.0000 0.0 0.0
C_24223 N_2175059901_447068c N_2175059902_ce6f9d9 13.9000 0.0250 0.0000 0.0000 0.0 0.0
C_24224 N_2175059902_ce6f9d9 N_2175059903_4d26030 13.6000 0.0250 0.0000 0.0000 0.0 0.0
C_24225 N_2175059903_4d26030 N_2175059904_6e9ae3b 20.9000 0.0250 0.0000 0.0000 0.0 0.0
C_24226 N_2175059904_6e9ae3b N_2175059905_acf40a0 14.5000 0.0250 0.0000 0.0000 0.0 0.0
C_24227 N_2175059905_acf40a0 N_2175059801_420cb31 18.0000 0.0250 0.0000 0.0000 0.0 0.0
C_24557 N_2175068001_013d591 N_2175068002_fdfa45e 25.7000 0.0250 0.0000 0.0000 0.0 0.0
C_24558 N_2175068002_fdfa45e N_2175058902_12d11c0 31.4000 0.0250 0.0000 0.0000 0.0 0.0
C_24559 N_2175068101_582c9d7 N_2175068102_a2569ae 20.0000 0.0250 0.0000 0.0000 0.0 0.0
C_24560 N_2175068102_a2569ae N_2175068103_b96d924 20.2000 0.0250 0.0000 0.0000 0.0 0.0
C_24561 N_2175068103_b96d924 N_2175068104_70afae0 20.1000 0.0250 0.0000 0.0000 0.0 0.0
C_24562 N_2175068104_70afae0 N_2175068201_f019b25 20.1000 0.0250 0.0000 0.0000 0.0 0.0
C_24563 N_2175068201_f019b25 N_2175069201_5896c5f 20.0000 0.0250 0.0000 0.0000 0.0 0.0
C_24564 N_2175068401_a94ded1 N_2175068403_5c04b87 20.9000 0.0250 0.0000 0.0000 0.0 0.0
C_24565 N_2175068402_0fc2647 N_2175068401_a94ded1 16.3000 0.0250 0.0000 0.0000 0.0 0.0
C_24566 N_2175068403_5c04b87 N_2175069401_f1428c9 27.5000 0.0250 0.0000 0.0000 0.0 0.0
C_24570 N_2175069201_5896c5f N_2175069202_85aea02 19.2000 0.0250 0.0000 0.0000 0.0 0.0
C_24571 N_2175069202_85aea02 N_2175069203_3db040e 20.0000 0.0250 0.0000 0.0000 0.0 0.0
C_24572 N_2175069203_3db040e N_2175069204_96cf5bb 19.8000 0.0250 0.0000 0.0000 0.0 0.0
C_24573 N_2175069204_96cf5bb N_2175069206_4b58843 20.0000 0.0250 0.0000 0.0000 0.0 0.0
C_24574 N_2175069205_6da8ed3 N_2175069307_747ab8b 32.8000 0.0250 0.0000 0.0000 0.0 0.0
C_24575 N_2175069206_4b58843 N_2176060201_8339ee1 20.1000 0.0250 0.0000 0.0000 0.0 0.0
C_24576 N_2175069301_8b6ee25 N_2175068402_0fc2647 15.2000 0.0250 0.0000 0.0000 0.0 0.0
C_24577 N_2175069302_7a1f9a4 N_2175069301_8b6ee25 26.0000 0.0250 0.0000 0.0000 0.0 0.0
C_24578 N_2175069303_18fccdc N_2175069302_7a1f9a4 30.1000 0.0250 0.0000 0.0000 0.0 0.0
C_24579 N_2175069304_a1e385d N_2175069303_18fccdc 23.3000 0.0250 0.0000 0.0000 0.0 0.0
C_24580 N_2175069305_4aaab73 N_2175069304_a1e385d 17.6000 0.0250 0.0000 0.0000 0.0 0.0
C_24581 N_2175069306_d1c3ac8 N_2175069305_4aaab73 11.9000 0.0250 0.0000 0.0000 0.0 0.0
C_24582 N_2175069307_747ab8b N_2175069306_d1c3ac8 27.2000 0.0250 0.0000 0.0000 0.0 0.0
C_24583 N_2175069401_f1428c9 N_2175069501_37d2164 29.9000 0.0250 0.0000 0.0000 0.0 0.0
C_24584 N_2175069501_37d2164 N_2175069502_4982e52 21.1000 0.0250 0.0000 0.0000 0.0 0.0
C_24585 N_2175069502_4982e52 N_2175069503_212797f 50.0000 0.0250 0.0000 0.0000 0.0 0.0
C_24586 N_2175069503_212797f N_2175069601_259bb03 36.5000 0.0250 0.0000 0.0000 0.0 0.0
C_24587 N_2175069601_259bb03 N_2175069602_c4e977a 23.8000 0.0250 0.0000 0.0000 0.0 0.0
C_24588 N_2175069602_c4e977a N_2175069603_96da065 18.2000 0.0250 0.0000 0.0000 0.0 0.0
C_24589 N_2175069603_96da065 N_2175069604_cab0d52 30.3000 0.0250 0.0000 0.0000 0.0 0.0
C_24590 N_2175069604_cab0d52 N_2176060601_59f9f38 22.3000 0.0250 0.0000 0.0000 0.0 0.0
C_24603 N_2175070301_9c1479a N_2174079313_2799e6c 31.8000 0.0160 0.0000 0.0000 0.0 0.0
C_24604 N_2175070401_4d9fc13 N_2175070404_d9a38a9 15.3000 0.0130 0.0000 0.0000 0.0 0.0
C_24605 N_2175070402_8dbe0be N_2175070405_68ed85f 15.2000 0.0130 0.0000 0.0000 0.0 0.0
C_24606 N_2175070403_84204fd N_2175070406_1bab45b 23.8000 0.0160 0.0000 0.0000 0.0 0.0
C_24607 N_2175070404_d9a38a9 N_2175070501_f4fe85c 71.4000 0.0130 0.0000 0.0000 0.0 0.0
C_24608 N_2175070405_68ed85f N_2175070407_e8e2341 73.4000 0.0130 0.0000 0.0000 0.0 0.0
C_24609 N_2175070406_1bab45b N_2175070408_a181526 52.1000 0.0160 0.0000 0.0000 0.0 0.0
C_24610 N_2175070407_e8e2341 N_2175070409_84c2fcd 17.9000 0.0130 0.0000 0.0000 0.0 0.0
C_24611 N_2175070408_a181526 N_2175070410_8f0c9a5 24.4000 0.0160 0.0000 0.0000 0.0 0.0
C_24612 N_2175070409_84c2fcd N_2175071506_a87c352 100.6000 0.0130 0.0000 0.0000 0.0 0.0
C_24613 N_2175070410_8f0c9a5 N_2175071501_8c121c1 45.1000 0.0160 0.0000 0.0000 0.0 0.0
C_24614 N_2175070501_f4fe85c N_2175070502_c0ceb77 17.8000 0.0130 0.0000 0.0000 0.0 0.0
C_24615 N_2175070502_c0ceb77 N_2175071502_750157c 46.9000 0.0130 0.0000 0.0000 0.0 0.0
C_24635 N_2175071501_8c121c1 N_2175071503_d5a15da 16.1000 0.0160 0.0000 0.0000 0.0 0.0
C_24636 N_2175071502_750157c N_2175071505_78c1093 47.3000 0.0130 0.0000 0.0000 0.0 0.0
C_24637 N_2175071503_d5a15da N_2175071504_c1c406c 33.6000 0.0160 0.0000 0.0000 0.0 0.0
C_24638 N_2175071504_c1c406c N_2175071508_fabf2b9 22.1000 0.0160 0.0000 0.0000 0.0 0.0
C_24639 N_2175071505_78c1093 N_2175071507_51e3c7d 13.5000 0.0130 0.0000 0.0000 0.0 0.0
C_24640 N_2175071506_a87c352 N_2175071509_79b494c 16.0000 0.0130 0.0000 0.0000 0.0 0.0
C_24641 N_2175071507_51e3c7d N_2175071510_7efd3c0 15.0000 0.0130 0.0000 0.0000 0.0 0.0
C_24642 N_2175071508_fabf2b9 N_2175071601_1daef95 20.5000 0.0160 0.0000 0.0000 0.0 0.0
C_24643 N_2175071509_79b494c N_2175071511_3a37a05 12.3000 0.0130 0.0000 0.0000 0.0 0.0
C_24644 N_2175071510_7efd3c0 N_2175071603_8dc18e1 39.1000 0.0130 0.0000 0.0000 0.0 0.0
C_24645 N_2175071511_3a37a05 N_2175071602_0c8f1e8 34.3000 0.0130 0.0000 0.0000 0.0 0.0
C_24648 N_2175071601_1daef95 N_2175071604_2d47f2b 33.3000 0.0160 0.0000 0.0000 0.0 0.0
C_24649 N_2175071602_0c8f1e8 N_2175071605_c6a5b1f 14.4000 0.0130 0.0000 0.0000 0.0 0.0
C_24650 N_2175071603_8dc18e1 N_2175071606_ca8b12d 19.1000 0.0130 0.0000 0.0000 0.0 0.0
C_24651 N_2175071604_2d47f2b N_2175071607_b6a3eed 19.5000 0.0160 0.0000 0.0000 0.0 0.0
C_24652 N_2175071605_c6a5b1f N_2175071608_7ffb2e9 29.2000 0.0130 0.0000 0.0000 0.0 0.0
C_24653 N_2175071606_ca8b12d N_2175071609_593447b 27.5000 0.0130 0.0000 0.0000 0.0 0.0
C_24654 N_2175071607_b6a3eed N_2175072601_051aaa0 26.8000 0.0160 0.0000 0.0000 0.0 0.0
C_24655 N_2175071608_7ffb2e9 N_2175072702_37bf34c 79.6000 0.0130 0.0000 0.0000 0.0 0.0
C_24656 N_2175071609_593447b N_2175072703_952eb1d 79.5000 0.0130 0.0000 0.0000 0.0 0.0
C_24676 N_2175072601_051aaa0 N_2175072602_1e7e833 31.8000 0.0160 0.0000 0.0000 0.0 0.0
C_24677 N_2175072602_1e7e833 N_2175072701_710e208 27.2000 0.0160 0.0000 0.0000 0.0 0.0
C_24680 N_2175072701_710e208 N_2175072704_9daec82 29.9000 0.0160 0.0000 0.0000 0.0 0.0
C_24681 N_2175072702_37bf34c N_2175072706_79fbf9a 33.6000 0.0130 0.0000 0.0000 0.0 0.0
C_24682 N_2175072703_952eb1d N_2175072705_8f09004 27.6000 0.0130 0.0000 0.0000 0.0 0.0
C_24683 N_2175072704_9daec82 N_2175072707_84cec8d 29.8000 0.0160 0.0000 0.0000 0.0 0.0
C_24684 N_2175072705_8f09004 N_2175072709_266a0a7 30.9000 0.0130 0.0000 0.0000 0.0 0.0
C_24685 N_2175072706_79fbf9a N_2175072708_ca64e28 26.9000 0.0130 0.0000 0.0000 0.0 0.0
C_24686 N_2175072707_84cec8d N_2175072710_2e6e580 20.0000 0.0160 0.0000 0.0000 0.0 0.0
C_24687 N_2175072708_ca64e28 N_2175072805_803fd58 31.6000 0.0130 0.0000 0.0000 0.0 0.0
C_24688 N_2175072709_266a0a7 N_2175072804_3c7464c 28.3000 0.0130 0.0000 0.0000 0.0 0.0
C_24689 N_2175072710_2e6e580 N_2175072807_e0f5def 39.3000 0.0160 0.0000 0.0000 0.0 0.0
C_24691 N_2175072801_998391b N_2175072803_33cc2e8 24.5000 0.0130 0.0000 0.0000 0.0 0.0
C_24692 N_2175072802_152819b N_2175072806_ae31b2b 36.2000 0.0130 0.0000 0.0000 0.0 0.0
C_24693 N_2175072803_33cc2e8 N_2175072807_e0f5def 26.5000 0.0130 0.0000 0.5970 0.0 0.0
C_24694 N_2175072804_3c7464c N_2175073801_2ac2d4e 30.7000 0.0130 0.0000 0.0000 0.0 0.0
C_24695 N_2175072805_803fd58 N_2175073802_d6996a1 30.7000 0.0130 0.0000 0.0000 0.0 0.0
C_24696 N_2175072806_ae31b2b N_2175073804_b4a0350 16.9000 0.0130 0.0000 0.5970 0.0 0.0
C_24697 N_2175072807_e0f5def N_2175073804_b4a0350 18.0000 0.0160 0.0000 0.0000 0.0 0.0
C_24723 N_2175073701_580e9c8 N_2175073702_85bbd7f 19.3000 0.0130 0.0000 0.0000 0.0 0.0
C_24724 N_2175073702_85bbd7f N_2175073806_4275dcb 43.2000 0.0130 0.0000 0.0000 0.0 0.0
C_24725 N_2175073702_85bbd7f N_2175073812_8987809 26.5000 0.0130 0.0000 0.0000 0.0 0.0
C_24726 N_2175073801_2ac2d4e N_2175073803_ddcc79a 11.0000 0.0130 0.0000 0.0000 0.0 0.0
C_24727 N_2175073802_d6996a1 N_2175073805_aa7927e 12.2000 0.0130 0.0000 0.0000 0.0 0.0
C_24728 N_2175073803_ddcc79a N_2175073901_9145a17 86.0000 0.0130 0.0000 0.0000 0.0 0.0
C_24729 N_2175073804_b4a0350 N_2175073808_04533b2 15.6000 0.0160 0.0000 0.0000 0.0 0.0
C_24730 N_2175073805_aa7927e N_2175073903_f8e6892 85.4000 0.0130 0.0000 0.0000 0.0 0.0
C_24731 N_2175073806_4275dcb N_2175073804_b4a0350 11.5000 0.0130 0.0000 0.3970 0.0 0.0
C_24733 N_2175073808_04533b2 N_2175073809_2498253 30.5000 0.0160 0.0000 0.0000 0.0 0.0
C_24734 N_2175073809_2498253 N_2175073811_d470391 27.2000 0.0160 0.0000 0.0000 0.0 0.0
C_24735 N_2175073810_89d8f3d N_2175073902_19ccc16 38.1000 0.0250 0.0000 0.0000 0.0 0.0
C_24736 N_2175073811_d470391 N_2175073904_ed10976 30.5000 0.0160 0.0000 0.0000 0.0 0.0
C_24737 N_2175073812_8987809 N_2175074801_973af67 64.3000 0.0130 0.0000 0.0000 0.0 0.0
C_24738 N_2175073813_2280a90 N_2175073902_19ccc16 33.7000 0.0250 0.0000 1.3000 0.0 0.0
C_24739 N_2175073814_48391e8 N_2175073813_2280a90 13.6000 0.0250 0.0000 0.0000 0.0 0.0
C_24740 N_2175073901_9145a17 N_2175073908_23bff7a 60.9000 0.0130 0.0000 0.0000 0.0 0.0
C_24741 N_2175073902_19ccc16 N_2175073905_bf65de7 18.9000 0.0250 0.0000 0.0000 0.0 0.0
C_24742 N_2175073903_f8e6892 N_2175073909_d0a8222 60.4000 0.0130 0.0000 0.0000 0.0 0.0
C_24743 N_2175073904_ed10976 N_2175073906_12957fb 28.3000 0.0160 0.0000 0.0000 0.0 0.0
C_24744 N_2175073905_bf65de7 N_2175073907_ad52ae9 29.4000 0.0250 0.0000 0.0000 0.0 0.0
C_24745 N_2175073906_12957fb N_2175074902_89f2072 55.0000 0.0160 0.0000 0.0000 0.0 0.0
C_24746 N_2175073907_ad52ae9 N_2175073910_386bb70 25.8000 0.0250 0.0000 0.0000 0.0 0.0
C_24747 N_2175073908_23bff7a N_2175074902_89f2072 29.1000 0.0130 0.0000 0.0000 0.0 0.0
C_24748 N_2175073909_d0a8222 N_2175074902_89f2072 29.3000 0.0130 0.0000 0.0580 0.0 0.0
C_24749 N_2175073910_386bb70 N_2175074902_89f2072 29.1000 0.0250 0.0000 0.1080 0.0 0.0
C_24766 N_2175074801_973af67 N_2175074802_d9b7c65 41.7000 0.0130 0.0000 0.0000 0.0 0.0
C_24767 N_2175074802_d9b7c65 N_2175074904_ab68ada 38.4000 0.0130 0.0000 0.0000 0.0 0.0
C_24768 N_2175074803_e708231 N_2175074908_9bf95c1 39.7000 0.0160 0.0000 0.0000 0.0 0.0
C_24769 N_2175074804_ffe6192 N_2175074803_e708231 10.8000 0.0160 0.0000 0.0000 0.0 0.0
C_24770 N_2175074901_c32ef09 N_2175073907_ad52ae9 34.5000 0.0250 0.0000 1.4500 0.0 0.0
C_24771 N_2175074902_89f2072 N_2175084001_0c60efb 26.1000 0.0250 0.0000 0.0000 0.0 0.0
C_24772 N_2175074903_d03494a N_2175074901_c32ef09 18.8000 0.0250 0.0000 0.0000 0.0 0.0
C_24773 N_2175074904_ab68ada N_2175074905_867c78a 4.3000 0.0130 0.0000 0.4410 0.0 0.0
C_24774 N_2175074905_867c78a N_2175073910_386bb70 64.7000 0.0160 0.0000 0.0000 0.0 0.0
C_24775 N_2175074906_9941bcb N_2175074905_867c78a 25.3000 0.0160 0.0000 0.0000 0.0 0.0
C_24776 N_2175074907_db7b34f N_2175074906_9941bcb 12.0000 0.0160 0.0000 0.0000 0.0 0.0
C_24777 N_2175074908_9bf95c1 N_2175074907_db7b34f 10.3000 0.0160 0.0000 0.0000 0.0 0.0
C_24791 N_2175075802_b3fa922 N_2175074804_ffe6192 58.7000 0.0160 0.0000 0.0000 0.0 0.0
C_24792 N_2175075803_f52f73f N_2175075802_b3fa922 8.1000 0.0130 0.0000 0.7000 0.0 0.0
C_24793 N_2175075804_ae46829 N_2175075803_f52f73f 24.2000 0.0130 0.0000 0.0000 0.0 0.0
C_24794 N_2175075805_e0e6cfc N_2175075803_f52f73f 18.4000 0.0130 0.0000 0.0000 0.0 0.0
C_24795 N_2175075806_0387dc8 N_2175075804_ae46829 16.1000 0.0130 0.0000 0.4710 0.0 0.0
C_24796 N_2175075807_ea3f99e N_2175075804_ae46829 17.0000 0.0130 0.0000 0.0000 0.0 0.0
C_24797 N_2175075808_9d857e0 N_2175075805_e0e6cfc 33.0000 0.0130 0.0000 0.0000 0.0 0.0
C_24798 N_2175075809_43554d9 N_2175075807_ea3f99e 40.8000 0.0130 0.0000 0.0000 0.0 0.0
C_24799 N_2175075901_dd4946c N_2175075806_0387dc8 32.2000 0.0130 0.0000 0.0000 0.0 0.0
C_24800 N_2175075902_11fd36b N_2175075901_dd4946c 23.7000 0.0130 0.0000 0.0000 0.0 0.0
C_24801 N_2175075903_9d85d98 N_2175075902_11fd36b 36.2000 0.0130 0.0000 0.0000 0.0 0.0
C_24802 N_2175075904_02a9432 N_2175075903_9d85d98 28.6000 0.0130 0.0000 0.0600 0.0 0.0
C_24812 N_2175076701_2f7fd7b N_2175075808_9d857e0 50.6000 0.0130 0.0000 0.0000 0.0 0.0
C_24813 N_2175076702_246112f N_2175076701_2f7fd7b 46.3000 0.0130 0.0000 0.0000 0.0 0.0
C_24814 N_2175076703_6b73ac3 N_2175076801_088874a 51.6000 0.0130 0.0000 0.0000 0.0 0.0
C_24815 N_2175076704_c5d7ff7 N_2175076702_246112f 31.4000 0.0130 0.0000 0.0000 0.0 0.0
C_24816 N_2175076705_9ca6658 N_2175076703_6b73ac3 37.7000 0.0130 0.0000 0.0000 0.0 0.0
C_24817 N_2175076801_088874a N_2175075809_43554d9 37.7000 0.0130 0.0000 0.0000 0.0 0.0
C_24828 N_2175077701_04c3c2e N_2175076704_c5d7ff7 36.4000 0.0130 0.0000 0.0000 0.0 0.0
C_24829 N_2175077702_7506f6a N_2175076705_9ca6658 35.8000 0.0130 0.0000 0.0000 0.0 0.0
C_24830 N_2175077703_3f98362 N_2175077701_04c3c2e 30.9000 0.0130 0.0000 0.0000 0.0 0.0
C_24832 N_2175077706_9ead686 N_2175077702_7506f6a 15.3000 0.0130 0.0000 0.0000 0.0 0.0
C_24844 N_2175078701_f7ed602 N_2175078702_ed53eeb 25.2000 0.0160 0.0000 0.0000 0.0 0.0
C_24845 N_2175078702_ed53eeb N_2175078703_d8c6355 29.8000 0.0160 0.0000 0.0000 0.0 0.0
C_24846 N_2175078703_d8c6355 N_2175079605_97c7e26 30.0000 0.0160 0.0000 0.0000 0.0 0.0
C_24852 N_2175079602_d10733a N_2175079603_ecc501e 30.5000 0.0250 0.0000 0.0000 0.0 0.0
C_24853 N_2175079603_ecc501e N_2175079604_0163657 29.8000 0.0250 0.0000 0.0000 0.0 0.0
C_24854 N_2175079604_0163657 N_2176070701_7698600 30.4000 0.0250 0.0000 0.0000 0.0 0.0
C_24855 N_2175079605_97c7e26 N_2175079602_d10733a 26.3000 0.0250 0.0000 0.0000 0.0 0.0
C_24856 N_2175084001_0c60efb N_2175084002_7a2e696 20.1000 0.0250 0.0000 0.0000 0.0 0.0
C_24857 N_2175084002_7a2e696 N_2175084003_e422d8f 10.2000 0.0250 0.0000 0.0000 0.0 0.0
C_24858 N_2175084003_e422d8f N_2175084004_d0ca886 52.9000 0.0250 0.0000 0.0000 0.0 0.0
C_24859 N_2175084004_d0ca886 N_2175084102_abcd483 74.0000 0.0250 0.0000 0.0000 0.0 0.0
C_24860 N_2175084102_abcd483 N_2175084101_b4b5d69 38.2000 0.0250 0.0000 0.0000 0.0 0.0
C_24862 N_2175085501_321c250 N_2175085502_86192ed 16.7000 0.0250 0.0000 0.0000 0.0 0.0
C_24863 N_2175085502_86192ed N_2175085503_993ab07 11.4000 0.0250 0.0000 0.0000 0.0 0.0
C_24864 N_2175085503_993ab07 N_2175085504_e985229 21.5000 0.0250 0.0000 0.0000 0.0 0.0
C_24865 N_2175085504_e985229 N_2175085505_c5c7f14 17.4000 0.0250 0.0000 0.0000 0.0 0.0
C_24866 N_2175085505_c5c7f14 N_2175086501_a7b3f12 22.8000 0.0250 0.0000 0.0000 0.0 0.0
C_24867 N_2175085801_415cc53 N_2175086801_3aa6036 37.7000 0.0250 0.0000 0.0000 0.0 0.0
C_24868 N_2175086001_d6cf941 N_2175075904_02a9432 33.5000 0.0130 0.0000 0.0000 0.0 0.0
C_24871 N_2175086501_a7b3f12 N_2175086502_1dbe4e2 16.0000 0.0250 0.0000 0.0000 0.0 0.0
C_24872 N_2175086502_1dbe4e2 N_2175086503_f360a45 26.8000 0.0250 0.0000 0.0000 0.0 0.0
C_24873 N_2175086801_3aa6036 N_2175086802_2aef967 48.9000 0.0250 0.0000 0.0000 0.0 0.0
C_24874 N_2175086802_2aef967 N_2175087801_fa3dde1 53.8000 0.0250 0.0000 0.0000 0.0 0.0
C_24877 N_2175087801_fa3dde1 N_2175087802_d57e4ad 31.5000 0.0250 0.0000 0.0000 0.0 0.0
C_24878 N_2175087802_d57e4ad N_2175087701_307a8c8 39.3000 0.0250 0.0000 0.0000 0.0 0.0
C_24894 N_2175091801_34faff5 N_2175092801_eff7b13 109.1000 0.0250 0.0000 0.0000 0.0 0.0
C_24895 N_2175092801_eff7b13 N_2175092901_56e31ad 99.0000 0.0250 0.0000 0.0000 0.0 0.0
C_24896 N_2175092901_56e31ad N_2175093901_82b9aa9 102.5000 0.0250 0.0000 0.0000 0.0 0.0
C_24897 N_2175093901_82b9aa9 N_2175103003_dffa4c2 65.9000 0.0250 0.0000 0.0000 0.0 0.0
C_24927 N_2175103003_dffa4c2 N_2175104002_2b6cdc9 48.3000 0.0250 0.0000 0.0000 0.0 0.0
C_24942 N_2175104002_2b6cdc9 N_2175104003_f2bba88 56.8000 0.0250 0.0000 0.0000 0.0 0.0
C_24943 N_2175104003_f2bba88 N_2175105001_92548a2 56.1000 0.0250 0.0000 0.0000 0.0 0.0
C_24944 N_2175105001_92548a2 N_2175105002_2641c3f 41.0000 0.0250 0.0000 0.0000 0.0 0.0
C_24945 N_2175105002_2641c3f N_2175106001_f54b4c2 20.7000 0.0250 0.0000 0.0000 0.0 0.0
C_24946 N_2175106001_f54b4c2 N_2175106002_012367f 19.8000 0.0250 0.0000 0.0000 0.0 0.0
C_24947 N_2175106002_012367f N_2175106003_8394bf5 16.9000 0.0250 0.0000 0.0000 0.0 0.0
C_24948 N_2175106003_8394bf5 N_2175106004_50327fb 25.8000 0.0250 0.0000 0.0000 0.0 0.0
C_24949 N_2175106004_50327fb N_2175106005_f2293b2 25.6000 0.0250 0.0000 0.0000 0.0 0.0
C_24950 N_2175106005_f2293b2 N_2175106006_943728e 12.6000 0.0250 0.0000 0.0000 0.0 0.0
C_24951 N_2175106006_943728e N_2175107001_396c991 17.2000 0.0160 0.0000 0.0000 0.0 0.0
C_24952 N_2175106401_10bd2b2 N_2175106402_562e8b0 31.3000 0.0250 0.0000 0.0000 0.0 0.0
C_24953 N_2175106402_562e8b0 N_2175106403_9a1d2f9 27.9000 0.0250 0.0000 0.0000 0.0 0.0
C_24954 N_2175106403_9a1d2f9 N_2175106502_6fa4ca6 24.0000 0.0250 0.0000 0.0000 0.0 0.0
C_24955 N_2175106501_6d18b23 N_2175107501_c9424f1 25.3000 0.0250 0.0000 0.0000 0.0 0.0
C_24956 N_2175106502_6fa4ca6 N_2175106501_6d18b23 19.4000 0.0250 0.0000 0.0000 0.0 0.0
C_24957 N_2175106601_500f48f N_2175106602_b6922e7 8.3000 0.0250 0.0000 0.0000 0.0 0.0
C_24958 N_2175106602_b6922e7 N_2175106603_3842227 3.8000 0.0250 0.0000 0.0000 0.0 0.0
C_24959 N_2175106603_3842227 N_2175106604_42fd17e 2.5000 0.0250 0.0000 0.0000 0.0 0.0
C_24960 N_2175106604_42fd17e N_2175106605_e952b57 13.6000 0.0250 0.0000 0.0000 0.0 0.0
C_24961 N_2175106605_e952b57 N_2175106606_91977a8 15.4000 0.0250 0.0000 0.0000 0.0 0.0
C_24962 N_2175106606_91977a8 N_2175107601_b0586d5 20.1000 0.0250 0.0000 0.0000 0.0 0.0
C_24963 N_2175107001_396c991 N_2175107002_7e5b470 16.6000 0.0160 0.0000 0.0000 0.0 0.0
C_24964 N_2175107002_7e5b470 N_2175107003_478546c 28.1000 0.0250 0.0000 0.0000 0.0 0.0
C_24965 N_2175107003_478546c N_2175107004_478475a 47.7000 0.0250 0.0000 0.0000 0.0 0.0
C_24966 N_2175107004_478475a N_2175108101_5d5174e 45.7000 0.0250 0.0000 0.0000 0.0 0.0
C_24967 N_2175107501_c9424f1 N_2175107502_b1a7af8 23.0000 0.0250 0.0000 0.0000 0.0 0.0
C_24968 N_2175107502_b1a7af8 N_2175107504_e52379d 22.3000 0.0250 0.0000 0.0000 0.0 0.0
C_24969 N_2175107503_f962168 N_2175107505_7848397 14.7000 0.0250 0.0000 0.0000 0.0 0.0
C_24970 N_2175107504_e52379d N_2175107506_f9b0bad 26.5000 0.0250 0.0000 0.0000 0.0 0.0
C_24971 N_2175107505_7848397 N_2175107506_f9b0bad 20.1000 0.0250 0.0000 0.0000 0.0 0.0
C_24972 N_2175107506_f9b0bad N_2175107507_085e678 24.1000 0.0250 0.0000 0.0000 0.0 0.0
C_24973 N_2175107507_085e678 N_2175107508_ea2a1c7 14.6000 0.0250 0.0000 0.0000 0.0 0.0
C_24974 N_2175107508_ea2a1c7 N_2175108501_3bfbcaa 19.9000 0.0250 0.0000 0.0000 0.0 0.0
C_24975 N_2175107601_b0586d5 N_2175107602_5e29e90 19.9000 0.0250 0.0000 0.0000 0.0 0.0
C_24976 N_2175107602_5e29e90 N_2175107603_264928d 15.1000 0.0250 0.0000 0.0000 0.0 0.0
C_24977 N_2175107603_264928d N_2175107503_f962168 14.7000 0.0250 0.0000 0.0000 0.0 0.0
C_24978 N_2175108101_5d5174e N_2175108102_cb8d59c 31.7000 0.0250 0.0000 0.0000 0.0 0.0
C_24979 N_2175108102_cb8d59c N_2175108103_174ee1b 30.5000 0.0250 0.0000 0.0000 0.0 0.0
C_24980 N_2175108103_174ee1b N_2175108104_ca2a76e 11.8000 0.0250 0.0000 0.0000 0.0 0.0
C_24981 N_2175108104_ca2a76e N_2175109101_9d23aad 12.8000 0.0250 0.0000 0.0000 0.0 0.0
C_24982 N_2175108501_3bfbcaa N_2175108502_930df9a 21.5000 0.0250 0.0000 0.0000 0.0 0.0
C_24983 N_2175108502_930df9a N_2175108503_0c757ca 7.2000 0.0250 0.0000 0.0000 0.0 0.0
C_24984 N_2175108503_0c757ca N_2175108601_c5c0a47 12.8000 0.0250 0.0000 0.0000 0.0 0.0
C_24985 N_2175108601_c5c0a47 N_2175108602_323d697 9.3000 0.0250 0.0000 0.0000 0.0 0.0
C_24986 N_2175108602_323d697 N_2175108603_fcf961d 10.8000 0.0250 0.0000 0.0000 0.0 0.0
C_24987 N_2175108603_fcf961d N_2175108604_be0d2c7 20.0000 0.0250 0.0000 0.0000 0.0 0.0
C_24988 N_2175108604_be0d2c7 N_2175108605_6665352 20.0000 0.0250 0.0000 0.0000 0.0 0.0
C_24989 N_2175108605_6665352 N_2175109601_0d211e3 15.7000 0.0250 0.0000 0.0000 0.0 0.0
C_24990 N_2175109101_9d23aad N_2175109102_ac2ad38 25.9000 0.0250 0.0000 0.0000 0.0 0.0
C_24991 N_2175109102_ac2ad38 N_2175109103_338036d 26.9000 0.0250 0.0000 0.0000 0.0 0.0
C_24992 N_2175109103_338036d N_2176100101_86867d6 59.3000 0.0250 0.0000 0.0000 0.0 0.0
C_24993 N_2175109601_0d211e3 N_2175109602_d8718c5 30.0000 0.0250 0.0000 0.0000 0.0 0.0
C_24994 N_2175109602_d8718c5 N_2175109603_3ebe86f 27.9000 0.0250 0.0000 0.0000 0.0 0.0
C_24995 N_2175109603_3ebe86f N_2175109604_6cccc77 7.3000 0.0160 0.0000 0.0000 0.0 0.0
C_24996 N_2175109604_6cccc77 N_2175109605_a378776 22.0000 0.0160 0.0000 0.0000 0.0 0.0
C_24997 N_2175109605_a378776 N_2176100601_c83b4ac 30.0000 0.0250 0.0000 0.0000 0.0 0.0
C_24998 N_2175117301_d386b54 N_2175118201_0363b93 7.8000 0.0250 0.0000 0.0000 0.0 0.0
C_24999 N_2175118201_0363b93 N_2175118202_ae97151 19.6000 0.0250 0.0000 0.0000 0.0 0.0
C_25000 N_2175118202_ae97151 N_2175118203_a15a049 26.3000 0.0250 0.0000 0.0000 0.0 0.0
C_25001 N_2175118203_a15a049 N_2175118204_f0d08b8 27.4000 0.0250 0.0000 0.0000 0.0 0.0
C_25002 N_2175118204_f0d08b8 N_2175118205_ad6344b 25.6000 0.0250 0.0000 0.0000 0.0 0.0
C_25003 N_2175118205_ad6344b N_2175119201_cdc4177 29.9000 0.0250 0.0000 0.0000 0.0 0.0
C_25004 N_2175118301_013ef37 N_2175118302_118ec9f 21.4000 0.0250 0.0000 0.0000 0.0 0.0
C_25005 N_2175118302_118ec9f N_2175118303_e5ee36d 18.7000 0.0250 0.0040 0.0000 0.0 0.0
C_25006 N_2175118303_e5ee36d N_2175117301_d386b54 17.2000 0.0250 0.0000 0.0000 0.0 0.0
C_25007 N_2175119201_cdc4177 N_2175119202_b591838 29.2000 0.0250 0.0000 0.0000 0.0 0.0
C_25008 N_2175119202_b591838 N_2175119203_b540084 31.1000 0.0250 0.0000 0.0000 0.0 0.0
C_25009 N_2175119203_b540084 N_2176110101_1396580 29.8000 0.0250 0.0000 0.0000 0.0 0.0
C_25013 N_2175124901_94754a9 N_2175124902_7175d5a 29.9000 0.0250 0.0000 0.0000 0.0 0.0
C_25014 N_2175124902_7175d5a N_2175124903_c11c8a1 16.5000 0.0250 0.0000 0.0000 0.0 0.0
C_25015 N_2175124903_c11c8a1 N_2175124904_5d0a3e3 5.9000 0.0250 0.0000 0.0000 0.0 0.0
C_25016 N_2175124904_5d0a3e3 N_2175124905_fbab835 7.5000 0.0250 0.0000 0.0000 0.0 0.0
C_25017 N_2175124905_fbab835 N_2175124906_da4e040 8.1000 0.0250 0.0000 0.0000 0.0 0.0
C_25018 N_2175124906_da4e040 N_2175124907_322ac95 22.2000 0.0160 0.0000 0.0000 0.0 0.0
C_25019 N_2175124907_322ac95 N_2175125901_290cf26 30.4000 0.0160 0.0000 0.0000 0.0 0.0
C_25020 N_2175125901_290cf26 N_2175125902_f8ffcf7 30.1000 0.0160 0.0000 0.0000 0.0 0.0
C_25021 N_2175125902_f8ffcf7 N_2175125903_f3bac1c 29.9000 0.0160 0.0000 0.0000 0.0 0.0
C_25022 N_2175125903_f3bac1c N_2175125904_3f884ff 30.0000 0.0160 0.0000 0.0000 0.0 0.0
C_25023 N_2175125904_3f884ff N_2175136001_f4c7984 29.8000 0.0160 0.0000 0.0000 0.0 0.0
C_25027 N_2175130501_aac3f44 N_2175131501_64decf6 30.1000 0.0250 0.0000 0.0000 0.0 0.0
C_25028 N_2175130601_ce7d7b5 N_2175130602_3d01653 22.9000 0.0250 0.0000 0.0000 0.0 0.0
C_25029 N_2175130602_3d01653 N_2175130603_0d3ea1d 4.3000 0.0160 0.0000 0.0000 0.0 0.0
C_25030 N_2175130603_0d3ea1d N_2175130604_ba136c9 32.7000 0.0250 0.0000 0.0000 0.0 0.0
C_25031 N_2175130604_ba136c9 N_2175130605_acd3666 30.2000 0.0250 0.0000 0.0000 0.0 0.0
C_25032 N_2175130605_acd3666 N_2175130501_aac3f44 29.7000 0.0250 0.0000 0.0000 0.0 0.0
C_25033 N_2175130606_f2a6dbb N_2175131601_c33e265 29.7000 0.0250 0.0000 0.0000 0.0 0.0
C_25034 N_2175130701_3801d9b N_2175130702_4f1ff33 30.1000 0.0160 0.0000 0.0000 0.0 0.0
C_25035 N_2175130702_4f1ff33 N_2175130601_ce7d7b5 25.0000 0.0250 0.0000 0.0000 0.0 0.0
C_25036 N_2175130703_4069fde N_2175130704_e08a078 27.8000 0.0250 0.0000 0.0000 0.0 0.0
C_25037 N_2175130704_e08a078 N_2175130705_25c695b 6.0000 0.0250 0.0000 0.0000 0.0 0.0
C_25038 N_2175130705_25c695b N_2175130706_8e61755 13.5000 0.0160 0.0000 0.0000 0.0 0.0
C_25039 N_2175130706_8e61755 N_2175130707_295c63f 12.6000 0.0250 0.0000 0.0000 0.0 0.0
C_25040 N_2175130707_295c63f N_2175130606_f2a6dbb 29.9000 0.0250 0.0000 0.0000 0.0 0.0
C_25041 N_2175131401_3b8bab5 N_2175131402_af0ecd1 14.5000 0.0250 0.0000 0.0000 0.0 0.0
C_25042 N_2175131402_af0ecd1 N_2175131403_8a42a57 3.8000 0.0160 0.0000 0.0000 0.0 0.0
C_25043 N_2175131403_8a42a57 N_2175131404_d5e5921 11.7000 0.0250 0.0000 0.0000 0.0 0.0
C_25044 N_2175131404_d5e5921 N_2175131405_6ab7213 30.0000 0.0250 0.0000 0.0000 0.0 0.0
C_25045 N_2175131405_6ab7213 N_2175132401_6bd9094 29.9000 0.0250 0.0000 0.0000 0.0 0.0
C_25046 N_2175131501_64decf6 N_2175131502_e8a868a 16.8000 0.0250 0.0000 0.0000 0.0 0.0
C_25047 N_2175131502_e8a868a N_2175131503_c88c430 7.8000 0.0250 0.0000 0.0000 0.0 0.0
C_25048 N_2175131503_c88c430 N_2175131504_831e1d3 5.1000 0.0160 0.0000 0.0000 0.0 0.0
C_25049 N_2175131504_831e1d3 N_2175131505_0e3b3f8 30.0000 0.0160 0.0000 0.0000 0.0 0.0
C_25050 N_2175131505_0e3b3f8 N_2175131401_3b8bab5 30.0000 0.0250 0.0000 0.0000 0.0 0.0
C_25051 N_2175131506_0e03dee N_2175131507_fc7244f 29.9000 0.0250 0.0000 0.0000 0.0 0.0
C_25052 N_2175131507_fc7244f N_2175131508_179f014 3.5000 0.0250 0.0000 0.0000 0.0 0.0
C_25053 N_2175131508_179f014 N_2175131509_d6a7410 9.3000 0.0160 0.0000 0.0000 0.0 0.0
C_25054 N_2175131509_d6a7410 N_2175131510_40b2dc6 17.3000 0.0250 0.0000 0.0000 0.0 0.0
C_25055 N_2175131510_40b2dc6 N_2175132402_5fc8784 30.0000 0.0250 0.0000 0.0000 0.0 0.0
C_25056 N_2175131601_c33e265 N_2175131602_813ae49 30.2000 0.0250 0.0000 0.0000 0.0 0.0
C_25057 N_2175131602_813ae49 N_2175131603_93b4caf 28.8000 0.0250 0.0000 0.0000 0.0 0.0
C_25058 N_2175131603_93b4caf N_2175131506_0e03dee 61.3000 0.0250 0.0000 0.0000 0.0 0.0
C_25059 N_2175132101_c260074 N_2175132103_0c3a503 19.0000 0.0250 0.0000 0.0000 0.0 0.0
C_25060 N_2175132102_981edbe N_2175132101_c260074 11.9000 0.0250 0.0000 0.0000 0.0 0.0
C_25061 N_2175132103_0c3a503 N_2175132104_2202694 5.6000 0.0160 0.0000 0.0000 0.0 0.0
C_25062 N_2175132104_2202694 N_2175132105_8e57304 16.0000 0.0160 0.0000 0.0000 0.0 0.0
C_25063 N_2175132105_8e57304 N_2175133101_720d41c 6.6000 0.0250 0.0000 0.0000 0.0 0.0
C_25064 N_2175132201_a92bee4 N_2175132202_62100c4 29.9000 0.0250 0.0000 0.0000 0.0 0.0
C_25065 N_2175132202_62100c4 N_2175133202_3a1b80e 34.8000 0.0250 0.0000 0.0000 0.0 0.0
C_25066 N_2175132203_c294e2e N_2175132102_981edbe 30.0000 0.0250 0.0000 0.0000 0.0 0.0
C_25067 N_2175132301_e39fbea N_2175132302_33fcf06 6.5000 0.0160 0.0000 0.0000 0.0 0.0
C_25068 N_2175132302_33fcf06 N_2175132303_217daae 24.3000 0.0160 0.0000 0.0000 0.0 0.0
C_25069 N_2175132303_217daae N_2175132304_74872aa 9.8000 0.0250 0.0000 0.0000 0.0 0.0
C_25070 N_2175132304_74872aa N_2175132305_c405010 19.7000 0.0250 0.0000 0.0000 0.0 0.0
C_25071 N_2175132305_c405010 N_2175132307_eb6dec5 30.1000 0.0250 0.0000 0.0000 0.0 0.0
C_25072 N_2175132306_5b745e4 N_2175132308_fa7fe92 29.8000 0.0250 0.0000 0.0000 0.0 0.0
C_25073 N_2175132307_eb6dec5 N_2175132201_a92bee4 30.1000 0.0250 0.0000 0.0000 0.0 0.0
C_25074 N_2175132308_fa7fe92 N_2175132309_ad57394 29.9000 0.0160 0.0000 0.0000 0.0 0.0
C_25075 N_2175132309_ad57394 N_2175132310_9d6a9a7 29.8000 0.0250 0.0000 0.0000 0.0 0.0
C_25076 N_2175132310_9d6a9a7 N_2175133203_2e11d46 31.4000 0.0250 0.0000 0.0000 0.0 0.0
C_25077 N_2175132401_6bd9094 N_2175132301_e39fbea 29.7000 0.0250 0.0000 0.0000 0.0 0.0
C_25078 N_2175132402_5fc8784 N_2175132403_58ca80d 30.0000 0.0250 0.0000 0.0000 0.0 0.0
C_25079 N_2175132403_58ca80d N_2175132404_01d87c1 30.0000 0.0250 0.0000 0.0000 0.0 0.0
C_25080 N_2175132404_01d87c1 N_2175132306_5b745e4 30.2000 0.0250 0.0000 0.0000 0.0 0.0
C_25081 N_2175133101_720d41c N_2175133102_66bc9ae 29.9000 0.0250 0.0000 0.0000 0.0 0.0
C_25082 N_2175133102_66bc9ae N_2175133103_4ee3d75 14.8000 0.0250 0.0000 0.0000 0.0 0.0
C_25083 N_2175133103_4ee3d75 N_2175133105_c52e2c1 18.5000 0.0160 0.0000 0.0000 0.0 0.0
C_25084 N_2175133104_ed0d551 N_2175133106_8489fa0 30.6000 0.0250 0.0000 0.0000 0.0 0.0
C_25085 N_2175133105_c52e2c1 N_2175133106_8489fa0 6.3000 0.0250 0.0000 0.0000 0.0 0.0
C_25086 N_2175133106_8489fa0 N_2175133107_1d669c5 20.1000 0.0250 0.0000 0.0000 0.0 0.0
C_25087 N_2175133107_1d669c5 N_2175133108_98a14ad 30.2000 0.0250 0.0000 0.0000 0.0 0.0
C_25088 N_2175133108_98a14ad N_2175134001_de8fa66 32.1000 0.0250 0.0000 0.0000 0.0 0.0
C_25089 N_2175133201_62e38d2 N_2175132203_c294e2e 14.5000 0.0250 0.0000 0.0000 0.0 0.0
C_25090 N_2175133202_3a1b80e N_2175133201_62e38d2 9.6000 0.0250 0.0000 0.0000 0.0 0.0
C_25091 N_2175133203_2e11d46 N_2175133204_780e6a4 29.0000 0.0250 0.0000 0.0000 0.0 0.0
C_25092 N_2175133204_780e6a4 N_2175133207_44a1840 22.8000 0.0250 0.0000 0.0000 0.0 0.0
C_25093 N_2175133205_19fdc59 N_2175133208_0ebe8b9 18.1000 0.0250 0.0000 0.0000 0.0 0.0
C_25094 N_2175133206_58753cf N_2175133205_19fdc59 11.8000 0.0250 0.0000 0.0000 0.0 0.0
C_25095 N_2175133207_44a1840 N_2175133206_58753cf 8.5000 0.0250 0.0000 0.0000 0.0 0.0
C_25096 N_2175133208_0ebe8b9 N_2175133104_ed0d551 29.8000 0.0250 0.0000 0.0000 0.0 0.0
C_25097 N_2175134001_de8fa66 N_2175134002_e403116 19.1000 0.0160 0.0000 0.0000 0.0 0.0
C_25098 N_2175134002_e403116 N_2175134003_be96354 8.7000 0.0250 0.0000 0.2010 0.0 0.0
C_25099 N_2175134003_be96354 N_2175134004_90cf5a7 30.1000 0.0250 0.0000 0.0000 0.0 0.0
C_25100 N_2175134004_90cf5a7 N_2175134005_747272e 30.0000 0.0250 0.0000 0.0000 0.0 0.0
C_25101 N_2175134005_747272e N_2175124901_94754a9 30.0000 0.0250 0.0000 0.0000 0.0 0.0
C_25102 N_2175134901_dd260ed N_2175134902_027b346 23.7000 0.0160 0.0000 0.0000 0.0 0.0
C_25103 N_2175134902_027b346 N_2175134903_e6fd5f6 30.0000 0.0160 0.0000 0.0000 0.0 0.0
C_25104 N_2175134903_e6fd5f6 N_2175134904_b1d46a1 8.4000 0.0160 0.0000 0.0000 0.0 0.0
C_25105 N_2175134904_b1d46a1 N_2175134905_0e9c7bf 4.5000 0.0160 0.0000 0.0000 0.0 0.0
C_25106 N_2175134905_0e9c7bf N_2175135901_51a19e5 17.3000 0.0160 0.0000 0.0000 0.0 0.0
C_25107 N_2175135101_65982f3 N_2175136101_f2df2f5 34.2000 0.0250 0.0000 0.0000 0.0 0.0
C_25108 N_2175135901_51a19e5 N_2175135902_49d19f8 29.7000 0.0250 0.0000 0.0000 0.0 0.0
C_25109 N_2175135902_49d19f8 N_2175135903_b5ea962 16.3000 0.0250 0.0000 0.0000 0.0 0.0
C_25110 N_2175135903_b5ea962 N_2175135904_c1e2a32 12.5000 0.0160 0.0000 0.0000 0.0 0.0
C_25111 N_2175135904_c1e2a32 N_2175135905_20674cc 31.2000 0.0160 0.0000 0.0000 0.0 0.0
C_25112 N_2175135905_20674cc N_2175136901_4c9f070 59.9000 0.0250 0.0000 0.0000 0.0 0.0
C_25113 N_2175136001_f4c7984 N_2175136003_f062fd4 20.3000 0.0160 0.0000 0.0000 0.0 0.0
C_25114 N_2175136002_1e1eaa6 N_2175136003_f062fd4 23.8000 0.0250 0.0000 0.3100 0.0 0.0
C_25115 N_2175136003_f062fd4 N_2175136004_656aa65 39.9000 0.0250 0.0000 0.0000 0.0 0.0
C_25116 N_2175136004_656aa65 N_2175136005_2e364da 11.5000 0.0250 0.0000 0.0000 0.0 0.0
C_25117 N_2175136005_2e364da N_2175137001_667366c 20.3000 0.0250 0.0000 0.0000 0.0 0.0
C_25118 N_2175136101_f2df2f5 N_2175136002_1e1eaa6 110.3000 0.0250 0.0000 0.0000 0.0 0.0
C_25119 N_2175136901_4c9f070 N_2175136902_dd51962 30.1000 0.0250 0.0000 0.0000 0.0 0.0
C_25120 N_2175136902_dd51962 N_2175137901_92d3243 30.0000 0.0250 0.0000 0.0000 0.0 0.0
C_25121 N_2175137001_667366c N_2175137002_905d582 30.5000 0.0250 0.0000 0.0000 0.0 0.0
C_25122 N_2175137002_905d582 N_2175137003_54ebb90 29.7000 0.0250 0.0000 0.0000 0.0 0.0
C_25123 N_2175137003_54ebb90 N_2175137004_583c626 24.5000 0.0250 0.0000 0.0000 0.0 0.0
C_25124 N_2175137004_583c626 N_2175137005_56eb035 8.3000 0.0250 0.0000 0.0000 0.0 0.0
C_25125 N_2175137005_56eb035 N_2175138001_7e7a6c5 26.5000 0.0250 0.0000 0.0000 0.0 0.0
C_25126 N_2175137801_332309d N_2175137802_052a2e3 7.1000 0.0160 0.0000 0.0000 0.0 0.0
C_25127 N_2175137802_052a2e3 N_2175137803_b6271cd 11.9000 0.0160 0.0000 0.0000 0.0 0.0
C_25128 N_2175137803_b6271cd N_2175137904_d329172 30.8000 0.0250 0.0000 0.0000 0.0 0.0
C_25129 N_2175137804_d32977e N_2175138801_44483dd 31.1000 0.0250 0.0000 0.0000 0.0 0.0
C_25130 N_2175137901_92d3243 N_2175137903_7a829e6 11.7000 0.0250 0.0000 0.0000 0.0 0.0
C_25131 N_2175137902_b7fd78d N_2175137801_332309d 13.5000 0.0250 0.0000 0.3000 0.0 0.0
C_25132 N_2175137903_7a829e6 N_2175137902_b7fd78d 16.8000 0.0250 0.0000 0.0000 0.0 0.0
C_25133 N_2175137904_d329172 N_2175137905_c82c110 13.7000 0.0250 0.0000 0.0000 0.0 0.0
C_25134 N_2175137905_c82c110 N_2175137906_8cfa3c4 15.8000 0.0250 0.0000 0.0000 0.0 0.0
C_25135 N_2175137906_8cfa3c4 N_2175137804_d32977e 29.9000 0.0250 0.0000 0.0000 0.0 0.0
C_25136 N_2175138001_7e7a6c5 N_2175138002_e0271b1 29.9000 0.0250 0.0000 0.0000 0.0 0.0
C_25137 N_2175138002_e0271b1 N_2175138003_4a1fb45 29.6000 0.0250 0.0000 0.0000 0.0 0.0
C_25138 N_2175138003_4a1fb45 N_2175138004_fbee0b3 30.0000 0.0250 0.0000 0.0000 0.0 0.0
C_25139 N_2175138004_fbee0b3 N_2175139001_835dd75 30.0000 0.0250 0.0000 0.0000 0.0 0.0
C_25140 N_2175138501_43ac856 N_2175138502_5ac50c5 12.9000 0.0160 0.0000 0.0000 0.0 0.0
C_25141 N_2175138502_5ac50c5 N_2175138503_b14ed7b 45.3000 0.0250 0.0000 0.0000 0.0 0.0
C_25142 N_2175138503_b14ed7b N_2175138504_2e869c6 29.8000 0.0250 0.0000 0.0000 0.0 0.0
C_25143 N_2175138504_2e869c6 N_2175139501_0eef79b 30.4000 0.0250 0.0000 0.0000 0.0 0.0
C_25144 N_2175138801_44483dd N_2175138802_f334088 39.3000 0.0160 0.0000 0.0000 0.0 0.0
C_25145 N_2175138802_f334088 N_2175138803_8a77581 18.4000 0.0160 0.0000 0.0000 0.0 0.0
C_25146 N_2175138803_8a77581 N_2175139801_e6610d3 37.3000 0.0160 0.0000 0.3360 0.0 0.0
C_25147 N_2175139001_835dd75 N_2175139101_ba72e5d 29.9000 0.0250 0.0000 0.0000 0.0 0.0
C_25148 N_2175139101_ba72e5d N_2175139102_3a0196e 30.1000 0.0250 0.0000 0.0000 0.0 0.0
C_25149 N_2175139102_3a0196e N_2175139103_6294386 29.9000 0.0250 0.0000 0.0000 0.0 0.0
C_25150 N_2175139103_6294386 N_2176130101_ba6da88 29.9000 0.0250 0.0000 0.0000 0.0 0.0
C_25151 N_2175139501_0eef79b N_2175139502_ed97c13 29.9000 0.0250 0.0000 0.0000 0.0 0.0
C_25152 N_2175139502_ed97c13 N_2175139503_477b5b7 31.3000 0.0250 0.0000 0.0000 0.0 0.0
C_25153 N_2175139503_477b5b7 N_2176130501_a1227c3 15.6000 0.0160 0.0000 0.0000 0.0 0.0
C_25154 N_2175139801_e6610d3 N_2175139802_a3cfc7a 40.2000 0.0160 0.0000 0.0000 0.0 0.0
C_25155 N_2175139802_a3cfc7a N_2175139803_9a4403b 30.1000 0.0160 0.0000 0.0000 0.0 0.0
C_25156 N_2175139803_9a4403b N_2176130801_9a83715 30.2000 0.0160 0.0000 0.0000 0.0 0.0
C_25157 N_2175139901_ed9aead N_2175139902_e0a6657 26.9000 0.0250 0.0000 0.0000 0.0 0.0
C_25158 N_2175139902_e0a6657 N_2175139903_91ea8d0 28.1000 0.0250 0.0000 0.0000 0.0 0.0
C_25159 N_2175139903_91ea8d0 N_2175139904_8bdeafa 30.9000 0.0250 0.0000 0.0000 0.0 0.0
C_25160 N_2175139904_8bdeafa N_2175139801_e6610d3 22.6000 0.0250 0.0000 0.0000 0.0 0.0
C_25161 N_2175140301_05bf33c N_2175140302_2844647 18.9000 0.0250 0.0000 0.0000 0.0 0.0
C_25162 N_2175140302_2844647 N_2175140303_add17ee 19.5000 0.0250 0.0000 0.0000 0.0 0.0
C_25163 N_2175140303_add17ee N_2175140304_a5b2cad 35.8000 0.0250 0.0000 0.0000 0.0 0.0
C_25164 N_2175140304_a5b2cad N_2175141301_3575cac 78.5000 0.0250 0.0000 0.0000 0.0 0.0
C_25165 N_2175141201_dd81376 N_2175142201_6a95c9c 23.1000 0.0250 0.0000 0.0000 0.0 0.0
C_25166 N_2175141301_3575cac N_2175141201_dd81376 50.6000 0.0250 0.0000 0.0000 0.0 0.0
C_25167 N_2175142201_6a95c9c N_2175142202_a8d4173 30.3000 0.0250 0.0000 0.0000 0.0 0.0
C_25168 N_2175142202_a8d4173 N_2175142203_b70f26f 27.0000 0.0250 0.0000 0.0000 0.0 0.0
C_25169 N_2175142203_b70f26f N_2175142204_2c64cdf 16.6000 0.0250 0.0000 0.0000 0.0 0.0
C_25170 N_2175142204_2c64cdf N_2175143201_92dbf4c 40.4000 0.0250 0.0000 0.0000 0.0 0.0
C_25171 N_2175143001_29c7f5a N_2175143002_001d14f 4.7000 0.0160 0.0000 0.0000 0.0 0.0
C_25172 N_2175143002_001d14f N_2175143004_7306331 13.1000 0.0160 0.0000 0.0000 0.0 0.0
C_25173 N_2175143003_d1aff91 N_2175143001_29c7f5a 12.2000 0.0160 0.0000 0.0000 0.0 0.0
C_25174 N_2175143004_7306331 N_2175143006_143711a 30.0000 0.0160 0.0000 0.0000 0.0 0.0
C_25175 N_2175143005_0d09e58 N_2175143003_d1aff91 29.9000 0.0160 0.0000 0.0000 0.0 0.0
C_25176 N_2175143006_143711a N_2175144001_63d5191 30.1000 0.0160 0.0000 0.0000 0.0 0.0
C_25177 N_2175143101_2129f00 N_2175143005_0d09e58 30.2000 0.0160 0.0000 0.0000 0.0 0.0
C_25178 N_2175143102_62960e3 N_2175143101_2129f00 5.2000 0.0160 0.0000 0.0000 0.0 0.0
C_25179 N_2175143103_2e9de1f N_2175143102_62960e3 22.0000 0.0250 0.0000 0.0000 0.0 0.0
C_25180 N_2175143104_b2e2e4d N_2175143106_4f4c3fa 13.2000 0.0160 0.0000 0.0000 0.0 0.0
C_25181 N_2175143105_f399b4e N_2175143103_2e9de1f 30.3000 0.0250 0.0000 0.0000 0.0 0.0
C_25182 N_2175143106_4f4c3fa N_2175143105_f399b4e 12.3000 0.0250 0.0000 0.0000 0.0 0.0
C_25183 N_2175143201_92dbf4c N_2175143202_c929593 19.6000 0.0250 0.0000 0.6690 0.0 0.0
C_25184 N_2175143202_c929593 N_2175143203_5c3e225 7.4000 0.0160 0.0000 0.0000 0.0 0.0
C_25185 N_2175143203_5c3e225 N_2175143204_96e61ba 7.4000 0.0160 0.0000 0.0000 0.0 0.0
C_25186 N_2175143204_96e61ba N_2175143205_aab1beb 14.4000 0.0160 0.0000 0.0000 0.0 0.0
C_25187 N_2175143205_aab1beb N_2175143206_5b9ce66 19.3000 0.0160 0.0000 0.0000 0.0 0.0
C_25188 N_2175143206_5b9ce66 N_2175143104_b2e2e4d 14.6000 0.0160 0.0000 0.0000 0.0 0.0
C_25189 N_2175143801_1e49cca N_2175144902_86e7ed0 36.2000 0.0250 0.0000 0.0000 0.0 0.0
C_25190 N_2175143901_b7f5923 N_2175143801_1e49cca 19.2000 0.0250 0.0000 0.0000 0.0 0.0
C_25191 N_2175143902_49ab38d N_2175143901_b7f5923 20.9000 0.0250 0.0000 0.0000 0.0 0.0
C_25192 N_2175143903_8c0982c N_2175143902_49ab38d 27.5000 0.0250 0.0000 0.0000 0.0 0.0
C_25193 N_2175143904_2263fc3 N_2175143903_8c0982c 23.7000 0.0250 0.0000 0.0000 0.0 0.0
C_25194 N_2175144001_63d5191 N_2175144002_fb74daf 10.9000 0.0160 0.0000 0.0000 0.0 0.0
C_25195 N_2175144002_fb74daf N_2175134901_dd260ed 25.1000 0.0160 0.0000 1.4300 0.0 0.0
C_25196 N_2175144801_86c8b4b N_2175144802_8115aa8 27.7000 0.0250 0.0000 0.0000 0.0 0.0
C_25197 N_2175144802_8115aa8 N_2175144803_a60daeb 32.7000 0.0250 0.0000 0.0000 0.0 0.0
C_25198 N_2175144803_a60daeb N_2175145801_cca7abe 50.9000 0.0250 0.0000 0.0000 0.0 0.0
C_25199 N_2175144901_871cb2f N_2175143904_2263fc3 12.5000 0.0250 0.0000 0.0000 0.0 0.0
C_25200 N_2175144902_86e7ed0 N_2175144801_86c8b4b 15.9000 0.0250 0.0000 0.0000 0.0 0.0
C_25201 N_2175145801_cca7abe N_2175145802_212b3e0 40.5000 0.0250 0.0000 0.0000 0.0 0.0
C_25202 N_2175145802_212b3e0 N_2175145803_4d37ea3 20.0000 0.0250 0.0000 0.0000 0.0 0.0
C_25203 N_2175145803_4d37ea3 N_2175145804_6a707fc 30.2000 0.0250 0.0000 0.0000 0.0 0.0
C_25204 N_2175145804_6a707fc N_2175146801_95fbf60 37.5000 0.0250 0.0000 0.0000 0.0 0.0
C_25205 N_2175146701_d3d0b97 N_2175147801_e3e15d2 26.3000 0.0160 0.0000 0.0000 0.0 0.0
C_25206 N_2175146801_95fbf60 N_2175146802_0dfc848 38.9000 0.0250 0.0000 0.0000 0.0 0.0
C_25207 N_2175146802_0dfc848 N_2175146701_d3d0b97 22.1000 0.0160 0.0000 0.0000 0.0 0.0
C_25208 N_2175147801_e3e15d2 N_2175147802_4cbaaa3 28.5000 0.0160 0.0000 0.0000 0.0 0.0
C_25209 N_2175147802_4cbaaa3 N_2175147804_e29438f 31.7000 0.0250 0.0000 0.0000 0.0 0.0
C_25210 N_2175147803_38fb011 N_2175147805_7b0240b 10.7000 0.0250 0.0000 0.0000 0.0 0.0
C_25211 N_2175147804_e29438f N_2175147803_38fb011 20.6000 0.0250 0.0000 0.0000 0.0 0.0
C_25212 N_2175147805_7b0240b N_2175147806_8ee838f 29.5000 0.0250 0.0000 0.0000 0.0 0.0
C_25213 N_2175147806_8ee838f N_2175148801_a1a5e47 30.1000 0.0250 0.0000 0.0000 0.0 0.0
C_25214 N_2175148001_3b5f8f9 N_2175148002_24e9c3a 54.6000 0.0250 0.0000 0.0000 0.0 0.0
C_25215 N_2175148002_24e9c3a N_2175149001_f85cc36 25.5000 0.0250 0.0000 0.0000 0.0 0.0
C_25216 N_2175148101_e6e4deb N_2175148001_3b5f8f9 29.6000 0.0250 0.0000 0.0000 0.0 0.0
C_25217 N_2175148102_d45636a N_2175148101_e6e4deb 21.4000 0.0250 0.0000 0.0000 0.0 0.0
C_25218 N_2175148103_a407f05 N_2175148102_d45636a 18.7000 0.0250 0.0000 0.0000 0.0 0.0
C_25219 N_2175148401_c6102b5 N_2175148403_c8a12ef 20.0000 0.0250 0.0000 0.0000 0.0 0.0
C_25220 N_2175148402_998da6d N_2175148401_c6102b5 12.7000 0.0250 0.0000 0.0000 0.0 0.0
C_25221 N_2175148403_c8a12ef N_2175149401_e221e8e 28.8000 0.0250 0.0000 0.0000 0.0 0.0
C_25222 N_2175148501_509831a N_2175148402_998da6d 26.3000 0.0250 0.0000 0.0000 0.0 0.0
C_25223 N_2175148502_39c9d96 N_2175148503_7540e12 17.0000 0.0250 0.0000 0.0000 0.0 0.0
C_25224 N_2175148503_7540e12 N_2175148501_509831a 44.6000 0.0160 0.0000 0.0000 0.0 0.0
C_25225 N_2175148504_0fb457c N_2175148502_39c9d96 26.9000 0.0250 0.0000 0.0000 0.0 0.0
C_25226 N_2175148601_cb5e1dc N_2175148504_0fb457c 19.5000 0.0250 0.0000 0.0000 0.0 0.0
C_25227 N_2175148701_04f667e N_2175148704_29b4a80 17.4000 0.0160 0.0000 0.0000 0.0 0.0
C_25228 N_2175148702_c06d9cf N_2175148701_04f667e 14.2000 0.0160 0.0000 0.0000 0.0 0.0
C_25229 N_2175148703_24a3e20 N_2175148702_c06d9cf 7.3000 0.0250 0.0000 0.0000 0.0 0.0
C_25230 N_2175148704_29b4a80 N_2175149701_1730e8f 29.7000 0.0160 0.0000 0.0000 0.0 0.0
C_25231 N_2175148801_a1a5e47 N_2175148802_8357131 30.0000 0.0250 0.0000 0.0000 0.0 0.0
C_25232 N_2175148802_8357131 N_2175148803_632f217 26.6000 0.0250 0.0000 0.0000 0.0 0.0
C_25233 N_2175148803_632f217 N_2175148806_9cc56d4 26.5000 0.0250 0.0000 0.0000 0.0 0.0
C_25234 N_2175148804_7e4a042 N_2175148805_d54c812 23.5000 0.0250 0.0000 0.0000 0.0 0.0
C_25235 N_2175148805_d54c812 N_2175148808_683ade9 21.0000 0.0250 0.0000 0.0000 0.0 0.0
C_25236 N_2175148806_9cc56d4 N_2175148807_87930c2 8.4000 0.0250 0.0000 0.0000 0.0 0.0
C_25237 N_2175148807_87930c2 N_2175148703_24a3e20 21.3000 0.0250 0.0000 0.2400 0.0 0.0
C_25238 N_2175148808_683ade9 N_2175149803_77d7b6d 28.8000 0.0250 0.0000 0.0000 0.0 0.0
C_25239 N_2175148901_7ef597e N_2175148804_7e4a042 33.5000 0.0250 0.0000 0.0000 0.0 0.0
C_25240 N_2175148902_7be9e86 N_2175148901_7ef597e 43.3000 0.0250 0.0000 0.0000 0.0 0.0
C_25241 N_2175148903_487d20b N_2175148902_7be9e86 44.8000 0.0250 0.0000 0.0000 0.0 0.0
C_25242 N_2175149001_f85cc36 N_2175139901_ed9aead 36.6000 0.0250 0.0000 0.0000 0.0 0.0
C_25243 N_2175149101_a607f64 N_2175148103_a407f05 27.5000 0.0250 0.0000 0.0000 0.0 0.0
C_25244 N_2175149102_5ed199a N_2175149101_a607f64 21.2000 0.0250 0.0000 0.0000 0.0 0.0
C_25245 N_2175149201_540983b N_2175149102_5ed199a 22.7000 0.0250 0.0000 0.0000 0.0 0.0
C_25246 N_2175149202_14092c6 N_2175149201_540983b 20.1000 0.0250 0.0000 0.0000 0.0 0.0
C_25247 N_2175149203_4c5ab12 N_2175149202_14092c6 22.3000 0.0250 0.0000 0.0000 0.0 0.0
C_25248 N_2175149204_16d9ab1 N_2175149203_4c5ab12 25.1000 0.0250 0.0000 0.0000 0.0 0.0
C_25249 N_2175149205_76373f0 N_2175149207_172f2a5 9.1000 0.0250 0.0000 0.0000 0.0 0.0
C_25250 N_2175149206_b045082 N_2175149204_16d9ab1 8.3000 0.0250 0.0000 0.0000 0.0 0.0
C_25251 N_2175149207_172f2a5 N_2175149206_b045082 12.1000 0.0250 0.0000 0.0000 0.0 0.0
C_25252 N_2175149301_735b8c0 N_2175149205_76373f0 12.7000 0.0160 0.0150 0.0000 0.0 0.0
C_25253 N_2175149302_808d29b N_2175149301_735b8c0 30.0000 0.0250 0.0000 0.0000 0.0 0.0
C_25254 N_2175149303_b58487b N_2175149304_5b7005f 49.3000 0.0250 0.0000 0.0000 0.0 0.0
C_25255 N_2175149304_5b7005f N_2175149302_808d29b 19.4000 0.0250 0.0000 0.0000 0.0 0.0
C_25256 N_2175149401_e221e8e N_2175149402_c79d50c 30.5000 0.0250 0.0000 0.0000 0.0 0.0
C_25257 N_2175149402_c79d50c N_2175149303_b58487b 43.5000 0.0250 0.0000 0.2550 0.0 0.0
C_25258 N_2175149403_94e03ae N_2175149303_b58487b 25.6000 0.0250 0.0000 0.0000 0.0 0.0
C_25259 N_2175149404_2235313 N_2175149403_94e03ae 29.6000 0.0250 0.0000 0.0000 0.0 0.0
C_25260 N_2175149405_bb307fe N_2175149404_2235313 15.3000 0.0250 0.0000 0.0000 0.0 0.0
C_25261 N_2175149406_6a0e5ce N_2175149405_bb307fe 11.2000 0.0250 0.0000 0.0000 0.0 0.0
C_25262 N_2175149407_98d3a82 N_2175149406_6a0e5ce 7.9000 0.0250 0.0000 0.0000 0.0 0.0
C_25263 N_2175149408_203641a N_2175149407_98d3a82 18.9000 0.0250 0.0000 1.5400 0.0 0.0
C_25264 N_2175149501_cffd414 N_2175148503_7540e12 49.9000 0.0160 0.0000 0.7700 0.0 0.0
C_25265 N_2175149601_421ae79 N_2175148601_cb5e1dc 20.5000 0.0160 0.0000 0.0000 0.0 0.0
C_25266 N_2175149602_284b9fe N_2175149601_421ae79 38.5000 0.0160 0.0000 0.0000 0.0 0.0
C_25267 N_2175149603_fdd96d7 N_2175149602_284b9fe 26.7000 0.0160 0.0000 0.0000 0.0 0.0
C_25268 N_2175149701_1730e8f N_2175149702_ecd24ba 28.6000 0.0160 0.0000 0.0000 0.0 0.0
C_25269 N_2175149702_ecd24ba N_2175149603_fdd96d7 33.3000 0.0160 0.0000 0.0000 0.0 0.0
C_25270 N_2175149801_420377f N_2175148703_24a3e20 18.7000 0.0250 0.0000 0.0000 0.0 0.0
C_25271 N_2175149802_600b65e N_2175149801_420377f 14.8000 0.0250 0.0000 0.0000 0.0 0.0
C_25272 N_2175149803_77d7b6d N_2175149802_600b65e 35.9000 0.0250 0.0000 0.0000 0.0 0.0
C_25273 N_2175152301_1ac9081 N_2175152302_4a86727 22.2000 0.0160 0.0000 0.0000 0.0 0.0
C_25274 N_2175152302_4a86727 N_2175152303_aa49d53 26.9000 0.0160 0.0000 0.0000 0.0 0.0
C_25275 N_2175152303_aa49d53 N_2175153301_2d72666 19.6000 0.0160 0.0000 0.0000 0.0 0.0
C_25276 N_2175153101_16aa8f5 N_2175154101_9ab93f3 28.4000 0.0160 0.0000 0.0000 0.0 0.0
C_25277 N_2175153102_cc0e9b1 N_2175153101_16aa8f5 33.7000 0.0160 0.0000 0.0000 0.0 0.0
C_25278 N_2175153103_773ebd3 N_2175153102_cc0e9b1 30.2000 0.0160 0.0000 0.0000 0.0 0.0
C_25279 N_2175153201_8b98d40 N_2175153103_773ebd3 29.9000 0.0250 0.0000 0.0000 0.0 0.0
C_25280 N_2175153202_5ee4ba4 N_2175153201_8b98d40 30.2000 0.0160 0.0000 0.0000 0.0 0.0
C_25281 N_2175153301_2d72666 N_2175153302_ef9d9a7 26.0000 0.0250 0.0000 0.0000 0.0 0.0
C_25282 N_2175153302_ef9d9a7 N_2175153303_8bf7455 29.8000 0.0250 0.0000 0.0000 0.0 0.0
C_25283 N_2175153303_8bf7455 N_2175153304_ee1af97 30.2000 0.0250 0.0000 0.0000 0.0 0.0
C_25284 N_2175153304_ee1af97 N_2175154303_d34c8f7 27.4000 0.0250 0.0000 0.0000 0.0 0.0
C_25285 N_2175154001_e081a83 N_2175144901_871cb2f 25.0000 0.0250 0.0000 0.0000 0.0 0.0
C_25286 N_2175154002_47418f5 N_2175154001_e081a83 30.0000 0.0250 0.0000 0.0000 0.0 0.0
C_25287 N_2175154003_be821be N_2175154002_47418f5 4.9000 0.0250 0.0000 0.0000 0.0 0.0
C_25288 N_2175154004_b4665d9 N_2175154003_be821be 12.9000 0.0160 0.0000 0.0000 0.0 0.0
C_25289 N_2175154005_09e6958 N_2175154004_b4665d9 12.5000 0.0250 0.0000 0.0000 0.0 0.0
C_25290 N_2175154006_04b37c8 N_2175154005_09e6958 29.9000 0.0250 0.0000 0.0000 0.0 0.0
C_25291 N_2175154101_9ab93f3 N_2175154102_e039d6c 28.4000 0.0250 0.0000 0.0000 0.0 0.0
C_25292 N_2175154102_e039d6c N_2175154006_04b37c8 34.2000 0.0250 0.0000 0.0000 0.0 0.0
C_25293 N_2175154201_6504487 N_2175153202_5ee4ba4 29.7000 0.0250 0.0000 0.0000 0.0 0.0
C_25294 N_2175154301_b2fedd0 N_2175154201_6504487 29.8000 0.0250 0.0000 0.0000 0.0 0.0
C_25295 N_2175154302_dce98de N_2175154301_b2fedd0 30.0000 0.0250 0.0000 0.0000 0.0 0.0
C_25296 N_2175154303_d34c8f7 N_2175154302_dce98de 30.1000 0.0250 0.0000 0.0000 0.0 0.0
C_25297 N_2175158001_86f76ce N_2175158002_821a124 21.3000 0.0250 0.0000 0.0000 0.0 0.0
C_25298 N_2175158002_821a124 N_2175158006_5549e24 23.3000 0.0250 0.0000 0.0000 0.0 0.0
C_25299 N_2175158003_d1e344e N_2175158001_86f76ce 13.1000 0.0250 0.0000 0.0000 0.0 0.0
C_25300 N_2175158004_28fc47b N_2175158003_d1e344e 19.3000 0.0250 0.0000 0.0000 0.0 0.0
C_25301 N_2175158005_95f49da N_2175148903_487d20b 8.2000 0.0250 0.0000 0.0000 0.0 0.0
C_25302 N_2175158006_5549e24 N_2175158005_95f49da 24.2000 0.0250 0.0000 0.0000 0.0 0.0
C_25303 N_2175158101_52f8dcb N_2175158102_83f9582 43.4000 0.0250 0.0000 0.0000 0.0 0.0
C_25304 N_2175158102_83f9582 N_2175158004_28fc47b 68.7000 0.0250 0.0000 0.0000 0.0 0.0
C_25305 N_2175158201_4b45e80 N_2175158202_4bd76d9 27.2000 0.0250 0.0000 0.0000 0.0 0.0
C_25306 N_2175158202_4bd76d9 N_2175158203_d48bd21 42.3000 0.0250 0.0000 0.0000 0.0 0.0
C_25307 N_2175158203_d48bd21 N_2175158101_52f8dcb 80.7000 0.0250 0.0000 0.0000 0.0 0.0
C_26390 N_2176040901_c0caa25 N_2176040902_ba468d3 20.0000 0.0160 0.0000 0.0000 0.0 0.0
C_26391 N_2176040902_ba468d3 N_2176040903_8947814 19.9000 0.0160 0.0000 0.0000 0.0 0.0
C_26392 N_2176040903_8947814 N_2176040904_99f0ac1 19.8000 0.0160 0.0000 0.0000 0.0 0.0
C_26393 N_2176040904_99f0ac1 N_2176040905_334c108 19.9000 0.0160 0.0000 0.0000 0.0 0.0
C_26394 N_2176040905_334c108 N_2176040906_c6aad71 15.4000 0.0160 0.0000 0.0000 0.0 0.0
C_26395 N_2176040906_c6aad71 N_2176040907_16ea839 4.6000 0.0160 0.0000 0.0000 0.0 0.0
C_26396 N_2176040907_16ea839 N_2176041901_00e67c4 19.3000 0.0160 0.0000 0.0000 0.0 0.0
C_26401 N_2176041801_dc6d7f2 N_2176041802_09282f0 19.7000 0.0160 0.0000 0.0000 0.0 0.0
C_26402 N_2176041802_09282f0 N_2176041803_334fbb2 21.1000 0.0160 0.0000 0.0000 0.0 0.0
C_26403 N_2176041803_334fbb2 N_2176041804_c6860a4 17.1000 0.0160 0.0000 0.0000 0.0 0.0
C_26404 N_2176041804_c6860a4 N_2176041805_c4580cd 26.4000 0.0250 0.0000 0.0000 0.0 0.0
C_26405 N_2176041805_c4580cd N_2176042801_e8a8367 18.8000 0.0250 0.0000 0.0000 0.0 0.0
C_26406 N_2176041901_00e67c4 N_2176041801_dc6d7f2 19.3000 0.0160 0.0000 0.0000 0.0 0.0
C_26410 N_2176042801_e8a8367 N_2176042802_a7fc8de 16.3000 0.0250 0.0000 0.0000 0.0 0.0
C_26411 N_2176042802_a7fc8de N_2176042803_e9fc880 21.8000 0.0250 0.0000 0.0000 0.0 0.0
C_26412 N_2176042803_e9fc880 N_2176042804_08e3830 10.5000 0.0250 0.0000 0.0000 0.0 0.0
C_26413 N_2176042804_08e3830 N_2176042805_7b95b92 14.2000 0.0250 0.0000 0.0000 0.0 0.0
C_26414 N_2176042805_7b95b92 N_2176042806_ae7d7ba 20.2000 0.0250 0.0000 0.0000 0.0 0.0
C_26415 N_2176042806_ae7d7ba N_2176043801_eb6b2df 17.7000 0.0250 0.0000 0.0000 0.0 0.0
C_26418 N_2176043801_eb6b2df N_2176043802_ba8d448 21.5000 0.0250 0.0000 0.0000 0.0 0.0
C_26419 N_2176043802_ba8d448 N_2176043803_d61bfa4 7.5000 0.0250 0.0000 0.0000 0.0 0.0
C_26420 N_2176043803_d61bfa4 N_2176043804_797acb8 7.9000 0.0250 0.0000 0.0000 0.0 0.0
C_26421 N_2176043804_797acb8 N_2176043805_7e63bc1 29.0000 0.0250 0.0000 0.0000 0.0 0.0
C_26422 N_2176043805_7e63bc1 N_2176043806_25d0164 19.1000 0.0250 0.0000 0.0000 0.0 0.0
C_26423 N_2176043806_25d0164 N_2176044801_733c7e7 14.3000 0.0250 0.0000 0.0000 0.0 0.0
C_26428 N_2176044801_733c7e7 N_2176044802_27d28ee 35.5000 0.0250 0.0000 0.0000 0.0 0.0
C_26429 N_2176044802_27d28ee N_2176044803_4ed2583 42.9000 0.0250 0.0000 0.0000 0.0 0.0
C_26430 N_2176044803_4ed2583 N_2176045801_8e99dba 45.9000 0.0160 0.0000 0.0000 0.0 0.0
C_26431 N_2176045801_8e99dba N_2176045802_4ee1ceb 43.9000 0.0250 0.0000 0.0000 0.0 0.0
C_26432 N_2176045802_4ee1ceb N_2176045803_1e8de10 9.4000 0.0250 0.0000 1.5670 0.0 0.0
C_26433 N_2176045803_1e8de10 N_2176046601_9cbe2a2 131.3000 0.0250 0.0000 0.0000 0.0 0.0
C_26434 N_2176045901_61ec37d N_2176045803_1e8de10 156.0000 0.0250 0.0000 0.0000 0.0 0.0
C_26436 N_2176046501_8151f30 N_2176047501_f0a8210 10.0000 0.0160 0.0000 0.0000 0.0 0.0
C_26437 N_2176046601_9cbe2a2 N_2176046501_8151f30 142.6000 0.0250 0.0000 0.0000 0.0 0.0
C_26446 N_2176050701_88e71af N_2176050702_15fb2fe 4.2000 0.0160 0.0000 0.0000 0.0 0.0
C_26447 N_2176050702_15fb2fe N_2176050703_2bf44bc 2.3000 0.0160 0.0000 0.0000 0.0 0.0
C_26448 N_2176050703_2bf44bc N_2176050704_576ec4e 19.1000 0.0250 0.0000 0.0000 0.0 0.0
C_26449 N_2176050704_576ec4e N_2176050708_80b672c 19.5000 0.0250 0.0000 0.0000 0.0 0.0
C_26450 N_2176050705_c8c2aa1 N_2176050706_322b718 12.9000 0.0250 0.0000 0.0000 0.0 0.0
C_26451 N_2176050706_322b718 N_2176050707_09aac86 9.4000 0.0160 0.0000 0.0000 0.0 0.0
C_26452 N_2176050707_09aac86 N_2176050709_5daa1e6 19.8000 0.0250 0.0000 0.0000 0.0 0.0
C_26453 N_2176050708_80b672c N_2176050712_b3c3844 21.3000 0.0250 0.0000 0.0000 0.0 0.0
C_26454 N_2176050709_5daa1e6 N_2176050711_5fc1931 17.3000 0.0250 0.0000 0.0000 0.0 0.0
C_26456 N_2176050711_5fc1931 N_2176050712_b3c3844 32.4000 0.0250 0.0000 0.7210 0.0 0.0
C_26457 N_2176050712_b3c3844 N_2176050713_17d5d0d 20.1000 0.0250 0.0000 0.0000 0.0 0.0
C_26459 N_2176050713_17d5d0d N_2176051701_5a8d984 20.0000 0.0250 0.0000 0.0000 0.0 0.0
C_26460 N_2176050801_cbc067a N_2176050802_88683f1 32.7000 0.0250 0.0000 0.0000 0.0 0.0
C_26461 N_2176050802_88683f1 N_2176050803_cbd5585 16.0000 0.0250 0.0000 0.0000 0.0 0.0
C_26462 N_2176050803_cbd5585 N_2176050804_3adf0f1 13.5000 0.0250 0.0000 0.0000 0.0 0.0
C_26463 N_2176050804_3adf0f1 N_2176050805_e7df726 16.8000 0.0250 0.0000 0.0000 0.0 0.0
C_26464 N_2176050805_e7df726 N_2176050705_c8c2aa1 14.0000 0.0250 0.0000 0.0000 0.0 0.0
C_26465 N_2176051701_5a8d984 N_2176051702_1fe7367 20.7000 0.0250 0.0000 0.0000 0.0 0.0
C_26466 N_2176051702_1fe7367 N_2176051703_5b57a22 20.6000 0.0250 0.0000 0.0000 0.0 0.0
C_26467 N_2176051703_5b57a22 N_2176051704_915d8fa 20.4000 0.0250 0.0000 0.0000 0.0 0.0
C_26468 N_2176051704_915d8fa N_2176051705_729aeaa 20.2000 0.0250 0.0000 0.0000 0.0 0.0
C_26469 N_2176051705_729aeaa N_2176051706_b00b055 25.3000 0.0250 0.0000 0.0000 0.0 0.0
C_26470 N_2176051706_b00b055 N_2176051707_914cb8c 17.8000 0.0250 0.0000 0.0000 0.0 0.0
C_26471 N_2176051707_914cb8c N_2176052701_599a54c 20.9000 0.0250 0.0000 0.0000 0.0 0.0
C_26473 N_2176052701_599a54c N_2176052801_2cd1a22 18.3000 0.0250 0.0000 0.0000 0.0 0.0
C_26474 N_2176052702_89a7c4a N_2176052703_35b5b4f 20.0000 0.0250 0.0000 0.0000 0.0 0.0
C_26475 N_2176052703_35b5b4f N_2176052704_33417ab 20.0000 0.0250 0.0000 0.0000 0.0 0.0
C_26476 N_2176052704_33417ab N_2176052705_234620a 19.7000 0.0250 0.0000 0.0000 0.0 0.0
C_26477 N_2176052705_234620a N_2176053701_628f18e 20.0000 0.0250 0.0000 0.0000 0.0 0.0
C_26478 N_2176052801_2cd1a22 N_2176052702_89a7c4a 19.7000 0.0250 0.0000 0.0000 0.0 0.0
C_26479 N_2176052802_6b3f405 N_2176052801_2cd1a22 29.2000 0.0250 0.0000 0.4000 0.0 0.0
C_26480 N_2176052803_be51ef9 N_2176052802_6b3f405 32.0000 0.0250 0.0000 0.0000 0.0 0.0
C_26481 N_2176052804_dcaf99b N_2176052803_be51ef9 19.8000 0.0250 0.0000 0.0000 0.0 0.0
C_26482 N_2176052901_6f69f3b N_2176052804_dcaf99b 19.9000 0.0250 0.0000 0.0000 0.0 0.0
C_26483 N_2176052902_68962ae N_2176052901_6f69f3b 20.2000 0.0250 0.0000 0.0000 0.0 0.0
C_26484 N_2176052903_92d595a N_2176052902_68962ae 19.8000 0.0250 0.0000 0.0000 0.0 0.0
C_26485 N_2176052904_2542d0f N_2176052903_92d595a 20.1000 0.0250 0.0000 0.0000 0.0 0.0
C_26486 N_2176052905_619378d N_2176052904_2542d0f 20.1000 0.0250 0.0000 0.0000 0.0 0.0
C_26487 N_2176053701_628f18e N_2176053702_a693891 20.1000 0.0250 0.0000 0.0000 0.0 0.0
C_26488 N_2176053702_a693891 N_2176053703_3d6740d 20.0000 0.0250 0.0000 0.0000 0.0 0.0
C_26489 N_2176053703_3d6740d N_2176053704_9c6ba7e 20.0000 0.0250 0.0000 0.0000 0.0 0.0
C_26490 N_2176053704_9c6ba7e N_2176053705_7120cd7 19.9000 0.0250 0.0000 0.0000 0.0 0.0
C_26491 N_2176053705_7120cd7 N_2176054701_c282a68 19.9000 0.0250 0.0000 0.0000 0.0 0.0
C_26493 N_2176054701_c282a68 N_2176054702_70b0f95 20.0000 0.0250 0.0000 0.0000 0.0 0.0
C_26494 N_2176054702_70b0f95 N_2176054703_eaa84f4 20.0000 0.0250 0.0000 0.0000 0.0 0.0
C_26495 N_2176054703_eaa84f4 N_2176054704_275f91c 19.8000 0.0250 0.0000 0.0000 0.0 0.0
C_26496 N_2176054704_275f91c N_2176054705_44c869f 19.8000 0.0250 0.0000 0.0000 0.0 0.0
C_26497 N_2176054705_44c869f N_2176054706_c1125f6 19.6000 0.0250 0.0000 0.0000 0.0 0.0
C_26498 N_2176054706_c1125f6 N_2176055701_8566e1e 19.9000 0.0250 0.0000 0.0000 0.0 0.0
C_26499 N_2176055701_8566e1e N_2176055702_63155e7 19.9000 0.0250 0.0000 0.0000 0.0 0.0
C_26500 N_2176055702_63155e7 N_2176055703_ee94fc1 19.8000 0.0250 0.0000 0.0000 0.0 0.0
C_26501 N_2176055703_ee94fc1 N_2176055704_e6cdf64 19.9000 0.0250 0.0000 0.0000 0.0 0.0
C_26502 N_2176055704_e6cdf64 N_2176055705_13309ec 20.0000 0.0250 0.0000 0.0000 0.0 0.0
C_26503 N_2176055705_13309ec N_2176056701_5b3fef4 20.0000 0.0250 0.0000 0.0000 0.0 0.0
C_26504 N_2176056101_5c70d12 N_2176045901_61ec37d 247.8000 0.0250 0.0000 0.0000 0.0 0.0
C_26508 N_2176056701_5b3fef4 N_2176056702_0ac10b7 20.6000 0.0250 0.0000 0.0000 0.0 0.0
C_26509 N_2176056702_0ac10b7 N_2176056703_30869b9 19.6000 0.0250 0.0000 0.0000 0.0 0.0
C_26510 N_2176056703_30869b9 N_2176056704_270457a 10.9000 0.0250 0.0000 0.0000 0.0 0.0
C_26511 N_2176056704_270457a N_2176056706_29b6d0a 8.8000 0.0250 0.0000 0.0000 0.0 0.0
C_26512 N_2176056705_1aa4407 N_2176056704_270457a 19.8000 0.0250 0.0000 1.0930 0.0 0.0
C_26513 N_2176056706_29b6d0a N_2176056709_1b9b829 20.6000 0.0160 0.0000 0.0000 0.0 0.0
C_26514 N_2176056707_a30e28a N_2176056705_1aa4407 20.3000 0.0250 0.0000 0.0000 0.0 0.0
C_26515 N_2176056708_c795c3c N_2176056707_a30e28a 20.2000 0.0250 0.0000 0.0000 0.0 0.0
C_26516 N_2176056709_1b9b829 N_2176057601_9756338 22.5000 0.0160 0.0000 0.0000 0.0 0.0
C_26517 N_2176056710_a0463d9 N_2176056708_c795c3c 20.4000 0.0250 0.0000 0.0000 0.0 0.0
C_26518 N_2176057401_13e01a7 N_2176056101_5c70d12 231.5000 0.0250 0.0000 0.0000 0.0 0.0
C_26519 N_2176057501_9bb8938 N_2176057502_ba1adb2 8.0000 0.0250 0.0000 1.0750 0.0 0.0
C_26520 N_2176057502_ba1adb2 N_2176057401_13e01a7 130.1000 0.0250 0.0000 0.0000 0.0 0.0
C_26521 N_2176057601_9756338 N_2176057602_ded4d9a 16.7000 0.0250 0.0000 0.0000 0.0 0.0
C_26522 N_2176057602_ded4d9a N_2176057603_13d9aac 25.7000 0.0250 0.0000 0.0000 0.0 0.0
C_26523 N_2176057603_13d9aac N_2176057604_342ed99 33.0000 0.0250 0.0000 0.3400 0.0 0.0
C_26524 N_2176057604_342ed99 N_2176057502_ba1adb2 137.8000 0.0250 0.0000 0.0000 0.0 0.0
C_26525 N_2176057801_8a87625 N_2176056710_a0463d9 20.3000 0.0250 0.0000 0.0000 0.0 0.0
C_26526 N_2176057802_db5c71a N_2176057801_8a87625 20.0000 0.0250 0.0000 0.0000 0.0 0.0
C_26527 N_2176057803_b234e0f N_2176057802_db5c71a 19.8000 0.0250 0.0000 0.0000 0.0 0.0
C_26528 N_2176057804_d2decd7 N_2176057803_b234e0f 20.3000 0.0250 0.0000 0.0000 0.0 0.0
C_26529 N_2176057805_f77f922 N_2176057804_d2decd7 20.2000 0.0250 0.0000 0.0000 0.0 0.0
C_26530 N_2176057806_79f8e99 N_2176057805_f77f922 20.1000 0.0250 0.0000 0.0000 0.0 0.0
C_26531 N_2176057901_fe83be3 N_2176057806_79f8e99 20.1000 0.0250 0.0000 0.0000 0.0 0.0
C_26532 N_2176057902_867a776 N_2176057901_fe83be3 20.0000 0.0250 0.0000 0.0000 0.0 0.0
C_26533 N_2176057903_e2acba5 N_2176057902_867a776 20.0000 0.0250 0.0000 0.0000 0.0 0.0
C_26534 N_2176057904_e3712a9 N_2176057903_e2acba5 20.0000 0.0250 0.0000 0.0000 0.0 0.0
C_26535 N_2176058701_b195382 N_2176057604_342ed99 133.0000 0.0250 0.0000 0.0000 0.0 0.0
C_26536 N_2176058801_8ad6323 N_2176058701_b195382 28.0000 0.0160 0.0000 0.0000 0.0 0.0
C_26537 N_2176058901_ac1cfd1 N_2176057904_e3712a9 20.0000 0.0250 0.0000 0.0000 0.0 0.0
C_26538 N_2176058902_d68d3ae N_2176058901_ac1cfd1 20.2000 0.0250 0.0000 0.0000 0.0 0.0
C_26539 N_2176059901_948bddd N_2176058801_8ad6323 161.8000 0.0250 0.0000 0.0000 0.0 0.0
C_26540 N_2176060201_8339ee1 N_2176060203_0888963 19.6000 0.0250 0.0000 0.0000 0.0 0.0
C_26541 N_2176060202_e70f7ad N_2175069205_6da8ed3 41.7000 0.0250 0.0000 0.0000 0.0 0.0
C_26542 N_2176060203_0888963 N_2176060204_5c2f9f7 13.5000 0.0160 0.0000 0.0000 0.0 0.0
C_26543 N_2176060204_5c2f9f7 N_2176060207_9f43a04 30.9000 0.0250 0.0000 0.0000 0.0 0.0
C_26544 N_2176060205_24636c6 N_2176060202_e70f7ad 22.5000 0.0250 0.0000 0.0000 0.0 0.0
C_26545 N_2176060206_025056d N_2176060302_f559ba0 52.4000 0.0250 0.0000 0.0000 0.0 0.0
C_26546 N_2176060207_9f43a04 N_2176060208_f167ed8 11.6000 0.0250 0.0000 0.0000 0.0 0.0
C_26547 N_2176060208_f167ed8 N_2176060209_f5ec416 5.0000 0.0160 0.0000 0.0000 0.0 0.0
C_26548 N_2176060209_f5ec416 N_2176060210_a454132 6.2000 0.0250 0.0000 0.0000 0.0 0.0
C_26549 N_2176060210_a454132 N_2176061201_3d99867 17.7000 0.0250 0.0000 0.0000 0.0 0.0
C_26550 N_2176060301_8f9bc73 N_2176060401_f2ea2c8 71.7000 0.0250 0.0000 0.0000 0.0 0.0
C_26551 N_2176060302_f559ba0 N_2176060301_8f9bc73 74.2000 0.0250 0.0000 0.0000 0.0 0.0
C_26552 N_2176060401_f2ea2c8 N_2176060502_0cd1994 66.4000 0.0250 0.0000 0.0000 0.0 0.0
C_26553 N_2176060501_3d97b91 N_2176060604_5aa06f5 34.1000 0.0250 0.0000 0.0000 0.0 0.0
C_26554 N_2176060502_0cd1994 N_2176060501_3d97b91 41.1000 0.0250 0.0000 0.0000 0.0 0.0
C_26555 N_2176060601_59f9f38 N_2176060602_169d1f0 18.6000 0.0250 0.0000 0.0000 0.0 0.0
C_26556 N_2176060602_169d1f0 N_2176060603_fea2b4d 8.6000 0.0250 0.0000 0.0000 0.0 0.0
C_26557 N_2176060603_fea2b4d N_2176060605_f564917 49.1000 0.0250 0.0000 0.0000 0.0 0.0
C_26558 N_2176060604_5aa06f5 N_2176060603_fea2b4d 35.4000 0.0250 0.0000 0.0000 0.0 0.0
C_26559 N_2176060605_f564917 N_2176061601_23ca14e 69.6000 0.0250 0.0000 0.0000 0.0 0.0
C_26562 N_2176060803_00ff0b7 N_2176064901_47c9ed8 411.8000 0.0130 0.0000 0.0000 0.0 0.0
C_26564 N_2176061201_3d99867 N_2176061202_4ed9b2e 21.8000 0.0160 0.0000 0.0000 0.0 0.0
C_26565 N_2176061202_4ed9b2e N_2176061203_46daa6d 15.8000 0.0250 0.0000 0.0000 0.0 0.0
C_26566 N_2176061203_46daa6d N_2176061204_f40b8cb 18.6000 0.0250 0.0000 0.0000 0.0 0.0
C_26567 N_2176061204_f40b8cb N_2176061205_73c6565 20.0000 0.0250 0.0000 0.0000 0.0 0.0
C_26568 N_2176061205_73c6565 N_2176062201_0980e00 17.2000 0.0250 0.0000 0.0000 0.0 0.0
C_26569 N_2176061601_23ca14e N_2176062601_b2b119f 49.2000 0.0250 0.0000 0.0000 0.0 0.0
C_26571 N_2176062001_0eff5d5 N_2176052905_619378d 19.8000 0.0250 0.0000 0.0000 0.0 0.0
C_26572 N_2176062002_1083cb3 N_2176062001_0eff5d5 19.9000 0.0250 0.0000 0.0000 0.0 0.0
C_26573 N_2176062003_f471446 N_2176062002_1083cb3 19.8000 0.0250 0.0000 0.0000 0.0 0.0
C_26574 N_2176062004_8f37a70 N_2176062003_f471446 20.1000 0.0250 0.0000 0.0000 0.0 0.0
C_26575 N_2176062005_e77389b N_2176062004_8f37a70 19.9000 0.0250 0.0000 0.0000 0.0 0.0
C_26576 N_2176062101_871b13a N_2176062005_e77389b 20.2000 0.0250 0.0000 0.0000 0.0 0.0
C_26577 N_2176062102_bb77733 N_2176062101_871b13a 20.1000 0.0250 0.0000 0.0000 0.0 0.0
C_26578 N_2176062103_68e79be N_2176062102_bb77733 19.9000 0.0250 0.0000 0.0000 0.0 0.0
C_26579 N_2176062104_03099fb N_2176062103_68e79be 20.1000 0.0250 0.0000 0.0000 0.0 0.0
C_26580 N_2176062105_9f4ca85 N_2176062104_03099fb 20.1000 0.0250 0.0000 0.0000 0.0 0.0
C_26581 N_2176062201_0980e00 N_2176062202_3d9f7a6 22.5000 0.0250 0.0000 0.0000 0.0 0.0
C_26582 N_2176062202_3d9f7a6 N_2176062105_9f4ca85 41.0000 0.0250 0.0000 0.0000 0.0 0.0
C_26583 N_2176062203_a15d99d N_2176062204_b6376b7 36.4000 0.0250 0.0000 0.0000 0.0 0.0
C_26584 N_2176062204_b6376b7 N_2176062202_3d9f7a6 32.0000 0.0250 0.0000 0.0000 0.0 0.0
C_26585 N_2176062301_dbb1546 N_2176062302_a2814f1 41.8000 0.0250 0.0000 0.0000 0.0 0.0
C_26586 N_2176062302_a2814f1 N_2176062203_a15d99d 44.9000 0.0250 0.0000 0.0000 0.0 0.0
C_26587 N_2176062401_c82ab85 N_2176062402_393a305 38.6000 0.0250 0.0000 0.0000 0.0 0.0
C_26588 N_2176062402_393a305 N_2176062403_e1402c2 38.8000 0.0250 0.0000 0.0000 0.0 0.0
C_26589 N_2176062403_e1402c2 N_2176062301_dbb1546 35.6000 0.0250 0.0000 0.0000 0.0 0.0
C_26590 N_2176062501_1348094 N_2176062502_70f6b82 35.0000 0.0250 0.0000 0.0000 0.0 0.0
C_26591 N_2176062502_70f6b82 N_2176062401_c82ab85 46.6000 0.0250 0.0000 0.0000 0.0 0.0
C_26592 N_2176062601_b2b119f N_2176062501_1348094 57.1000 0.0250 0.0000 0.0000 0.0 0.0
C_26593 N_2176062602_e740af5 N_2176062601_b2b119f 32.9000 0.0250 0.0000 0.0000 0.0 0.0
C_26594 N_2176062701_fa072a5 N_2176062602_e740af5 51.8000 0.0250 0.0000 0.0000 0.0 0.0
C_26595 N_2176062702_c4f6951 N_2176062701_fa072a5 41.3000 0.0250 0.0000 0.0000 0.0 0.0
C_26596 N_2176062703_7122c9a N_2176062702_c4f6951 19.3000 0.0250 0.0000 0.0000 0.0 0.0
C_26597 N_2176062704_9741199 N_2176062703_7122c9a 19.4000 0.0250 0.0000 0.0000 0.0 0.0
C_26598 N_2176063701_a1618b9 N_2176062704_9741199 21.9000 0.0250 0.0000 0.0000 0.0 0.0
C_26599 N_2176063702_3be2fc7 N_2176063701_a1618b9 19.5000 0.0250 0.0000 0.0000 0.0 0.0
C_26600 N_2176063703_1be4373 N_2176063702_3be2fc7 37.1000 0.0250 0.0000 0.0000 0.0 0.0
C_26601 N_2176063704_775cddb N_2176063703_1be4373 26.5000 0.0250 0.0000 0.0000 0.0 0.0
C_26602 N_2176064701_afda901 N_2176064702_a1a9999 16.2000 0.0250 0.0000 0.0000 0.0 0.0
C_26603 N_2176064702_a1a9999 N_2176065701_c1965df 15.0000 0.0250 0.0000 0.0000 0.0 0.0
C_26604 N_2176064901_47c9ed8 N_2176064701_afda901 187.5000 0.0130 0.0000 0.0000 0.0 0.0
C_26605 N_2176065701_c1965df N_2176065702_b79695c 11.2000 0.0250 0.0000 0.0000 0.0 0.0
C_26606 N_2176065702_b79695c N_2176065703_b5535ba 13.6000 0.0250 0.0000 0.0000 0.0 0.0
C_26607 N_2176065703_b5535ba N_2176065801_d107ce8 18.7000 0.0250 0.0000 0.0000 0.0 0.0
C_26608 N_2176065801_d107ce8 N_2176065802_13e3e72 20.9000 0.0250 0.0000 0.0000 0.0 0.0
C_26609 N_2176065802_13e3e72 N_2176065803_6629340 17.2000 0.0250 0.0000 0.0000 0.0 0.0
C_26610 N_2176065803_6629340 N_2176065804_ab9d2de 20.0000 0.0250 0.0000 0.0000 0.0 0.0
C_26611 N_2176065804_ab9d2de N_2176066801_a9f0cee 17.0000 0.0250 0.0000 0.0000 0.0 0.0
C_26612 N_2176066801_a9f0cee N_2176066802_84c7b2e 15.1000 0.0250 0.0000 0.0000 0.0 0.0
C_26613 N_2176066802_84c7b2e N_2176066803_4b7e9a2 16.9000 0.0250 0.0000 0.0000 0.0 0.0
C_26614 N_2176066803_4b7e9a2 N_2176066804_fb178b2 16.2000 0.0250 0.0000 0.0000 0.0 0.0
C_26615 N_2176066804_fb178b2 N_2176066805_6157baf 22.5000 0.0250 0.0000 0.0000 0.0 0.0
C_26616 N_2176066805_6157baf N_2176066806_595e419 17.3000 0.0160 0.0000 0.0000 0.0 0.0
C_26617 N_2176066806_595e419 N_2176067801_ceca137 15.7000 0.0250 0.0000 0.0000 0.0 0.0
C_26618 N_2176067801_ceca137 N_2176067802_80a07c6 14.4000 0.0250 0.0000 0.0000 0.0 0.0
C_26619 N_2176067802_80a07c6 N_2176067803_0f7a9cf 20.0000 0.0250 0.0000 0.0000 0.0 0.0
C_26620 N_2176067803_0f7a9cf N_2176067804_9f48877 16.8000 0.0250 0.0000 0.0000 0.0 0.0
C_26621 N_2176067804_9f48877 N_2176067805_575daaf 14.4000 0.0250 0.0000 0.0000 0.0 0.0
C_26622 N_2176067805_575daaf N_2176067806_81ee606 22.9000 0.0250 0.0000 0.0000 0.0 0.0
C_26623 N_2176067806_81ee606 N_2176068801_36150ca 38.7000 0.0160 0.0000 0.0000 0.0 0.0
C_26624 N_2176068001_12ef030 N_2176058902_d68d3ae 20.2000 0.0250 0.0000 0.0000 0.0 0.0
C_26625 N_2176068002_05df1e3 N_2176068001_12ef030 20.0000 0.0250 0.0000 0.0000 0.0 0.0
C_26626 N_2176068003_4977a66 N_2176068002_05df1e3 20.3000 0.0250 0.0000 0.0000 0.0 0.0
C_26627 N_2176068004_d9ea75b N_2176068003_4977a66 20.2000 0.0250 0.0000 0.0000 0.0 0.0
C_26628 N_2176068005_f02bc71 N_2176068004_d9ea75b 20.1000 0.0250 0.0000 0.0000 0.0 0.0
C_26629 N_2176068801_36150ca N_2176068802_fd96972 24.7000 0.0250 0.0000 0.0000 0.0 0.0
C_26630 N_2176068802_fd96972 N_2176068803_6e640bb 23.1000 0.0250 0.0000 0.0000 0.0 0.0
C_26631 N_2176068803_6e640bb N_2176068804_82bd3e4 20.1000 0.0250 0.0000 0.0000 0.0 0.0
C_26632 N_2176068804_82bd3e4 N_2176069801_ac17bbe 20.9000 0.0250 0.0000 0.0000 0.0 0.0
C_26633 N_2176069601_b77b053 N_2177060401_8830ab5 273.7000 0.0250 0.0000 0.0000 0.0 0.0
C_26634 N_2176069801_ac17bbe N_2176069802_afd7274 21.1000 0.0250 0.0000 0.0000 0.0 0.0
C_26635 N_2176069802_afd7274 N_2176069804_b870dab 1.1000 0.0250 0.0000 0.0290 0.0 0.0
C_26636 N_2176069803_fb5d07d N_2176069804_b870dab 15.0000 0.0250 0.0000 0.0000 0.0 0.0
C_26637 N_2176069804_b870dab N_2176069601_b77b053 196.8000 0.0250 0.0000 0.0000 0.0 0.0
C_26638 N_2176069901_8ad8c27 N_2176069803_fb5d07d 49.7000 0.0250 0.0000 0.7380 0.0 0.0
C_26646 N_2176070701_7698600 N_2176070702_2c768db 30.2000 0.0250 0.0000 0.0000 0.0 0.0
C_26647 N_2176070702_2c768db N_2176070703_7ed92a9 14.0000 0.0160 0.0000 0.0000 0.0 0.0
C_26648 N_2176070703_7ed92a9 N_2176070706_439516e 15.4000 0.0250 0.0000 0.0000 0.0 0.0
C_26651 N_2176070706_439516e N_2176071701_9f759a2 29.5000 0.0250 0.0000 0.0000 0.0 0.0
C_26659 N_2176071701_9f759a2 N_2176071702_59a7195 30.6000 0.0250 0.0000 0.0000 0.0 0.0
C_26660 N_2176071702_59a7195 N_2176071703_4e2b333 32.0000 0.0250 0.0000 0.0000 0.0 0.0
C_26661 N_2176071703_4e2b333 N_2176071704_56ea7ff 14.7000 0.0160 0.0000 0.0000 0.0 0.0
C_26662 N_2176071704_56ea7ff N_2176071706_8cf3f63 13.4000 0.0250 0.0000 0.0000 0.0 0.0
C_26664 N_2176071706_8cf3f63 N_2176072704_1014117 29.8000 0.0250 0.0000 0.0000 0.0 0.0
C_26669 N_2176072702_71463f0 N_2176072703_95ff69c 30.1000 0.0250 0.0000 0.0000 0.0 0.0
C_26670 N_2176072703_95ff69c N_2176073801_a5dacee 30.0000 0.0250 0.0000 0.0000 0.0 0.0
C_26671 N_2176072704_1014117 N_2176072702_71463f0 29.8000 0.0250 0.0000 0.0000 0.0 0.0
C_26679 N_2176073801_a5dacee N_2176073802_480cb59 29.9000 0.0250 0.0000 0.0000 0.0 0.0
C_26680 N_2176073802_480cb59 N_2176073804_1c0ec4a 30.1000 0.0250 0.0000 0.0000 0.0 0.0
C_26682 N_2176073804_1c0ec4a N_2176073806_afc4d43 29.7000 0.0250 0.0000 0.0000 0.0 0.0
C_26684 N_2176073806_afc4d43 N_2176074802_098b0d7 30.2000 0.0250 0.0000 0.0000 0.0 0.0
C_26692 N_2176074802_098b0d7 N_2176074803_6da0216 29.8000 0.0250 0.0000 0.0000 0.0 0.0
C_26693 N_2176074803_6da0216 N_2176075801_0e27744 59.9000 0.0250 0.0000 0.0000 0.0 0.0
C_26701 N_2176075801_0e27744 N_2176075802_7265b2c 29.9000 0.0250 0.0000 0.0000 0.0 0.0
C_26702 N_2176075802_7265b2c N_2176075803_5ac6f74 30.3000 0.0250 0.0000 0.0000 0.0 0.0
C_26703 N_2176075803_5ac6f74 N_2176075903_0daf1a9 29.5000 0.0250 0.0000 0.0000 0.0 0.0
C_26706 N_2176075903_0daf1a9 N_2176076901_080c371 30.7000 0.0250 0.0000 0.0000 0.0 0.0
C_26713 N_2176076405_855a85a N_2176076406_b2ebf2d 10.0000 0.0250 0.0000 0.2800 0.0 0.0
C_26714 N_2176076406_b2ebf2d N_2176077405_2183818 19.2000 0.0250 0.0000 0.0000 0.0 0.0
C_26716 N_2176076502_fa0a3e2 N_2176076503_0b84ac4 30.0000 0.0250 0.0000 0.0000 0.0 0.0
C_26717 N_2176076503_0b84ac4 N_2176076406_b2ebf2d 39.7000 0.0250 0.0000 0.0000 0.0 0.0
C_26718 N_2176076504_7a3d2d5 N_2176076502_fa0a3e2 29.9000 0.0250 0.0000 0.0000 0.0 0.0
C_26719 N_2176076601_c2ace87 N_2176076602_0e22cfc 29.5000 0.0250 0.0000 0.0000 0.0 0.0
C_26720 N_2176076602_0e22cfc N_2176076603_5ddb875 30.1000 0.0250 0.0000 0.0000 0.0 0.0
C_26721 N_2176076603_5ddb875 N_2176076604_4fe3efd 29.8000 0.0250 0.0000 0.0000 0.0 0.0
C_26722 N_2176076604_4fe3efd N_2176076504_7a3d2d5 30.1000 0.0250 0.0000 0.0000 0.0 0.0
C_26723 N_2176076701_cdfd89d N_2176076601_c2ace87 30.0000 0.0250 0.0000 0.0000 0.0 0.0
C_26724 N_2176076702_a8b10b0 N_2176076701_cdfd89d 30.0000 0.0250 0.0000 0.0000 0.0 0.0
C_26725 N_2176076703_3624306 N_2176076702_a8b10b0 29.7000 0.0250 0.0000 0.0000 0.0 0.0
C_26726 N_2176076801_2040d1c N_2176076703_3624306 29.8000 0.0250 0.0000 0.0000 0.0 0.0
C_26727 N_2176076901_080c371 N_2176076903_c0208e6 30.6000 0.0250 0.0000 0.0000 0.0 0.0
C_26729 N_2176076903_c0208e6 N_2176076906_b00b0bf 44.9000 0.0250 0.0000 0.5000 0.0 0.0
C_26730 N_2176076904_e004631 N_2176076905_102610e 29.9000 0.0250 0.0000 0.0000 0.0 0.0
C_26731 N_2176076905_102610e N_2176076906_b00b0bf 23.9000 0.0250 0.0000 0.0000 0.0 0.0
C_26732 N_2176076906_b00b0bf N_2176077901_6701e34 46.0000 0.0160 0.0000 0.0000 0.0 0.0
C_26733 N_2176077401_cbaa31a N_2176077402_4ab1840 42.5000 0.0250 0.0000 0.3150 0.0 0.0
C_26734 N_2176077402_4ab1840 N_2176077403_ba46831 21.0000 0.0250 0.0000 0.0000 0.0 0.0
C_26735 N_2176077403_ba46831 N_2176077404_cc86d7a 29.8000 0.0250 0.0000 0.0000 0.0 0.0
C_26736 N_2176077404_cc86d7a N_2176078401_976353a 64.5000 0.0250 0.0000 0.0000 0.0 0.0
C_26737 N_2176077405_2183818 N_2176077402_4ab1840 16.2000 0.0250 0.0000 0.0000 0.0 0.0
C_26738 N_2176077501_5d6942d N_2176077404_cc86d7a 65.9000 0.0250 0.0000 0.2850 0.0 0.0
C_26739 N_2176077801_979487f N_2176076801_2040d1c 29.7000 0.0250 0.0000 0.0000 0.0 0.0
C_26740 N_2176077802_4bbca12 N_2176077803_6f69ff8 10.4000 0.0250 0.0000 0.6430 0.0 0.0
C_26741 N_2176077803_6f69ff8 N_2176077805_efd02c4 10.2000 0.0160 0.0000 0.0000 0.0 0.0
C_26742 N_2176077804_c3089fd N_2176077801_979487f 16.9000 0.0250 0.0000 0.0000 0.0 0.0
C_26743 N_2176077805_efd02c4 N_2176077804_c3089fd 21.3000 0.0250 0.0000 0.0000 0.0 0.0
C_26744 N_2176077901_6701e34 N_2176077802_4bbca12 19.8000 0.0250 0.0000 0.0000 0.0 0.0
C_26745 N_2176078101_04d4bc8 N_2176079001_9dee874 138.5000 0.0250 0.0000 0.0000 0.0 0.0
C_26746 N_2176078201_b11df1e N_2176078101_04d4bc8 58.2000 0.0250 0.0000 0.0000 0.0 0.0
C_26747 N_2176078301_e7380d7 N_2176078201_b11df1e 81.2000 0.0250 0.0000 0.0000 0.0 0.0
C_26748 N_2176078302_15fd831 N_2176078301_e7380d7 34.4000 0.0250 0.0000 0.0000 0.0 0.0
C_26749 N_2176078401_976353a N_2176078302_15fd831 118.3000 0.0250 0.0000 0.0000 0.0 0.0
C_26750 N_2176078501_8f8137c N_2176077501_5d6942d 54.5000 0.0250 0.0000 0.0000 0.0 0.0
C_26751 N_2176078601_7dc6874 N_2176078501_8f8137c 75.4000 0.0250 0.0000 0.0000 0.0 0.0
C_26752 N_2176078701_ebf4faf N_2176078601_7dc6874 68.1000 0.0250 0.0000 0.0000 0.0 0.0
C_26753 N_2176079001_9dee874 N_2176069803_fb5d07d 151.8000 0.0250 0.0000 0.0000 0.0 0.0
C_26754 N_2176079701_c6a9413 N_2176078701_ebf4faf 56.6000 0.0250 0.0000 0.0000 0.0 0.0
C_26755 N_2176079801_5d131b6 N_2176079701_c6a9413 49.1000 0.0250 0.0000 0.0000 0.0 0.0
C_26756 N_2176079802_c985136 N_2176079801_5d131b6 64.3000 0.0250 0.0000 0.0000 0.0 0.0
C_26775 N_2176086001_5cc4aa8 N_2176076904_e004631 30.7000 0.0250 0.0000 0.0000 0.0 0.0
C_26776 N_2176086002_fda466c N_2176086003_11b71e7 23.7000 0.0250 0.0000 0.0000 0.0 0.0
C_26777 N_2176086003_11b71e7 N_2176086001_5cc4aa8 29.8000 0.0250 0.0000 0.0000 0.0 0.0
C_26778 N_2176086004_94a18e3 N_2176086002_fda466c 17.2000 0.0160 0.0000 0.0000 0.0 0.0
C_26779 N_2176086101_a38cf1c N_2176086102_931c4ca 30.0000 0.0250 0.0000 0.0000 0.0 0.0
C_26780 N_2176086102_931c4ca N_2176086103_2bf23f1 30.1000 0.0250 0.0000 0.0000 0.0 0.0
C_26781 N_2176086103_2bf23f1 N_2176086004_94a18e3 18.8000 0.0250 0.0000 0.0000 0.0 0.0
C_26782 N_2176086201_8b05bc4 N_2176086202_7ddaa94 29.9000 0.0250 0.0000 0.0000 0.0 0.0
C_26783 N_2176086202_7ddaa94 N_2176086203_2aca2bf 30.2000 0.0250 0.0000 0.0000 0.0 0.0
C_26784 N_2176086203_2aca2bf N_2176086204_da92bfd 29.9000 0.0250 0.0000 0.0000 0.0 0.0
C_26785 N_2176086204_da92bfd N_2176086101_a38cf1c 29.9000 0.0250 0.0000 0.0000 0.0 0.0
C_26786 N_2176086301_5cf361c N_2176086201_8b05bc4 30.0000 0.0250 0.0000 0.0000 0.0 0.0
C_26787 N_2176086302_6929b9d N_2176086301_5cf361c 29.7000 0.0250 0.0000 0.0000 0.0 0.0
C_26788 N_2176086303_526c342 N_2176086302_6929b9d 30.2000 0.0250 0.0000 0.0000 0.0 0.0
C_26789 N_2176086401_7b3c66b N_2176086303_526c342 29.2000 0.0250 0.0000 0.0000 0.0 0.0
C_26790 N_2176086402_36a0b7d N_2176086401_7b3c66b 30.0000 0.0250 0.0000 0.0000 0.0 0.0
C_26793 N_2176087401_b77efbf N_2176086402_36a0b7d 30.0000 0.0250 0.0000 0.0000 0.0 0.0
C_26794 N_2176087402_64d4229 N_2176087401_b77efbf 30.0000 0.0250 0.0000 0.0000 0.0 0.0
C_26795 N_2176087403_6b00b44 N_2176087402_64d4229 29.7000 0.0250 0.0000 0.0000 0.0 0.0
C_26796 N_2176087501_49b2d2f N_2176087403_6b00b44 30.1000 0.0250 0.0000 0.0000 0.0 0.0
C_26799 N_2176088501_5b69f30 N_2176087501_49b2d2f 29.9000 0.0250 0.0000 0.0000 0.0 0.0
C_26800 N_2176088502_f037251 N_2176088501_5b69f30 30.1000 0.0250 0.0000 0.0000 0.0 0.0
C_26801 N_2176088503_630d152 N_2176088502_f037251 29.8000 0.0250 0.0000 0.0000 0.0 0.0
C_26802 N_2176088504_b93cbf9 N_2176088503_630d152 29.9000 0.0250 0.0000 0.0000 0.0 0.0
C_26803 N_2176088601_6c16cc9 N_2176088504_b93cbf9 30.1000 0.0250 0.0000 0.0000 0.0 0.0
C_26804 N_2176088701_ba542e6 N_2176089701_d08f7d5 65.2000 0.0250 0.0000 0.0000 0.0 0.0
C_26805 N_2176088801_16b37d2 N_2176088802_b897a7c 45.4000 0.0250 0.0000 0.0000 0.0 0.0
C_26806 N_2176088802_b897a7c N_2176088701_ba542e6 50.9000 0.0250 0.0000 0.0000 0.0 0.0
C_26807 N_2176088901_cc3f2c4 N_2176088902_9d88842 43.9000 0.0250 0.0000 0.0000 0.0 0.0
C_26808 N_2176088902_9d88842 N_2176088801_16b37d2 44.2000 0.0250 0.0000 0.0000 0.0 0.0
C_26809 N_2176089501_b82b51d N_2176089607_0e1f936 29.4000 0.0250 0.0000 0.0000 0.0 0.0
C_26810 N_2176089502_d486bff N_2176089501_b82b51d 29.5000 0.0250 0.0000 0.0000 0.0 0.0
C_26811 N_2176089601_de68ff6 N_2176088601_6c16cc9 14.1000 0.0250 0.0000 0.0000 0.0 0.0
C_26812 N_2176089602_aacd635 N_2176089601_de68ff6 24.4000 0.0160 0.0000 0.0000 0.0 0.0
C_26813 N_2176089603_14ce85c N_2176089605_6d3dd75 41.2000 0.0250 0.0000 1.4620 0.0 0.0
C_26814 N_2176089604_e6fe023 N_2176089602_aacd635 21.0000 0.0250 0.0000 0.0000 0.0 0.0
C_26815 N_2176089605_6d3dd75 N_2176089604_e6fe023 17.3000 0.0250 0.0640 0.0000 0.0 0.0
C_26816 N_2176089606_ee5b708 N_2176089605_6d3dd75 12.2000 0.0250 0.0000 0.0640 0.0 0.0
C_26817 N_2176089607_0e1f936 N_2176089605_6d3dd75 40.7000 0.0250 0.0000 0.0000 0.0 0.0
C_26818 N_2176089608_b89c783 N_2176089606_ee5b708 30.2000 0.0250 0.0000 0.0000 0.0 0.0
C_26819 N_2176089701_d08f7d5 N_2176089603_14ce85c 46.9000 0.0250 0.0000 0.0000 0.0 0.0
C_26858 N_2176098001_d21d76b N_2176088901_cc3f2c4 36.8000 0.0250 0.0000 0.0000 0.0 0.0
C_26859 N_2176099901_2949adf N_2176099902_e02183a 31.6000 0.0160 0.0000 0.0000 0.0 0.0
C_26860 N_2176099902_e02183a N_2177090801_a03e9cd 32.1000 0.0160 0.0000 0.0000 0.0 0.0
C_26861 N_2176100101_86867d6 N_2176100102_06bd050 91.6000 0.0250 0.0000 0.0000 0.0 0.0
C_26862 N_2176100102_06bd050 N_2176101101_c5fc24d 61.1000 0.0160 0.0000 0.0000 0.0 0.0
C_26863 N_2176100601_c83b4ac N_2176100501_68ba9bb 33.3000 0.0250 0.0000 0.0000 0.0 0.0
C_26864 N_2176101101_c5fc24d N_2176101102_5f7c28b 14.8000 0.0250 0.0000 0.0000 0.0 0.0
C_26887 N_2176104901_f0e105d N_2176104902_7b6f65e 29.7000 0.0250 0.0000 0.0000 0.0 0.0
C_26888 N_2176104902_7b6f65e N_2176104903_4f133c9 30.6000 0.0250 0.0000 0.0000 0.0 0.0
C_26889 N_2176104903_4f133c9 N_2176104904_16543be 30.0000 0.0250 0.0000 0.0000 0.0 0.0
C_26890 N_2176104904_16543be N_2176105901_8e4a718 44.4000 0.0250 0.0000 0.0000 0.0 0.0
C_26903 N_2176106601_62e551d N_2176106602_0cbc3ed 15.7000 0.0160 0.0000 0.0000 0.0 0.0
C_26904 N_2176106602_0cbc3ed N_2176106603_7914d1d 21.6000 0.0160 0.0000 0.0000 0.0 0.0
C_26905 N_2176106603_7914d1d N_2176107601_d6fa215 29.9000 0.0160 0.0000 0.0000 0.0 0.0
C_26909 N_2176107601_d6fa215 N_2176107602_79bd1fd 30.3000 0.0160 0.0000 0.0000 0.0 0.0
C_26910 N_2176107602_79bd1fd N_2176107701_5656f59 27.8000 0.0160 0.0000 0.0000 0.0 0.0
C_26911 N_2176107701_5656f59 N_2176107702_f4322de 36.1000 0.0160 0.0000 0.0000 0.0 0.0
C_26912 N_2176107702_f4322de N_2176107703_a7eae3f 39.0000 0.0160 0.0000 0.0000 0.0 0.0
C_26913 N_2176107703_a7eae3f N_2176108701_1a50e7b 43.1000 0.0160 0.0000 0.0000 0.0 0.0
C_26914 N_2176107801_5ebb080 N_2176106801_bf8d0f2 47.7000 0.0250 0.0000 0.0000 0.0 0.0
C_26915 N_2176107802_5df2a96 N_2176107801_5ebb080 36.2000 0.0250 0.0000 0.0000 0.0 0.0
C_26916 N_2176107803_de2325d N_2176107802_5df2a96 22.3000 0.0250 0.0000 0.0000 0.0 0.0
C_26919 N_2176108701_1a50e7b N_2176108801_13055e7 20.9000 0.0250 0.0000 0.0000 0.0 0.0
C_26920 N_2176108702_ff256e8 N_2176108701_1a50e7b 11.2000 0.0250 0.0000 0.0000 0.0 0.0
C_26921 N_2176108703_1fbd9f6 N_2176108702_ff256e8 22.7000 0.0250 0.0000 0.0000 0.0 0.0
C_26922 N_2176108704_c75aa23 N_2176108703_1fbd9f6 35.0000 0.0250 0.0000 0.0000 0.0 0.0
C_26923 N_2176108801_13055e7 N_2176107803_de2325d 19.0000 0.0250 0.0000 0.0000 0.0 0.0
C_26924 N_2176109301_1b777ce N_2176109302_d044bf7 15.5000 0.0250 0.0000 0.0000 0.0 0.0
C_26925 N_2176109302_d044bf7 N_2177100301_bf71906 21.7000 0.0250 0.0000 0.0000 0.0 0.0
C_26926 N_2176109701_6ea9712 N_2176108704_c75aa23 26.8000 0.0250 0.0000 0.0000 0.0 0.0
C_26927 N_2176109702_db64615 N_2176109701_6ea9712 28.1000 0.0250 0.0000 0.0000 0.0 0.0
C_26928 N_2176109703_e06719e N_2176109702_db64615 22.5000 0.0160 0.0000 0.0000 0.0 0.0
C_26929 N_2176109704_37204f3 N_2176109703_e06719e 13.9000 0.0160 0.0000 0.0000 0.0 0.0
C_26930 N_2176109705_986ab9b N_2176109704_37204f3 23.1000 0.0250 0.0000 0.0000 0.0 0.0
C_26931 N_2176110101_1396580 N_2176110102_725ef23 30.0000 0.0250 0.0000 0.0000 0.0 0.0
C_26932 N_2176110102_725ef23 N_2176110103_9204856 29.9000 0.0250 0.0000 0.0000 0.0 0.0
C_26933 N_2176110103_9204856 N_2176110104_d45c905 30.4000 0.0250 0.0000 0.0000 0.0 0.0
C_26934 N_2176110104_d45c905 N_2176111101_fdfd591 29.8000 0.0250 0.0000 0.0000 0.0 0.0
C_26938 N_2176111101_fdfd591 N_2176111102_2a3a20a 30.0000 0.0250 0.0000 0.0000 0.0 0.0
C_26939 N_2176111102_2a3a20a N_2176111103_e31c0f7 29.9000 0.0250 0.0000 0.0000 0.0 0.0
C_26940 N_2176111103_e31c0f7 N_2176111104_5a89744 29.9000 0.0250 0.0000 0.0000 0.0 0.0
C_26941 N_2176111104_5a89744 N_2176112001_f55e30e 30.0000 0.0250 0.0000 0.0000 0.0 0.0
C_26944 N_2176112001_f55e30e N_2176112002_e3b4138 30.0000 0.0250 0.0000 0.0000 0.0 0.0
C_26945 N_2176112002_e3b4138 N_2176112003_97b7378 30.2000 0.0250 0.0000 0.0000 0.0 0.0
C_26946 N_2176112003_97b7378 N_2176112004_d6c7dcd 29.9000 0.0250 0.0000 0.0000 0.0 0.0
C_26947 N_2176112004_d6c7dcd N_2176113001_945c73d 30.0000 0.0250 0.0000 0.0000 0.0 0.0
C_26951 N_2176113001_945c73d N_2176113002_7898d2d 30.4000 0.0250 0.0000 0.0000 0.0 0.0
C_26952 N_2176113002_7898d2d N_2176113003_3eb6d2f 29.6000 0.0250 0.0000 0.0000 0.0 0.0
C_26953 N_2176113003_3eb6d2f N_2176104901_f0e105d 30.0000 0.0250 0.0000 0.0000 0.0 0.0
C_26972 N_2176118002_c84bbff N_2176118001_39083b9 6.1000 0.0250 0.0000 0.0000 0.0 0.0
C_26973 N_2176118003_eb21573 N_2176118002_c84bbff 6.1000 0.0160 0.0000 0.0000 0.0 0.0
C_26974 N_2176118004_79d834f N_2176118003_eb21573 38.6000 0.0250 0.0000 0.0000 0.0 0.0
C_26975 N_2176118502_221d21f N_2176118501_30ef276 47.2000 0.0160 0.0000 0.0000 0.0 0.0
C_26976 N_2176118503_c10c827 N_2176118502_221d21f 36.0000 0.0160 0.0000 0.0000 0.0 0.0
C_26977 N_2176119001_348a82b N_2176118004_79d834f 25.0000 0.0250 0.0000 0.0000 0.0 0.0
C_26978 N_2176119002_4416c31 N_2176119001_348a82b 50.5000 0.0250 0.0000 0.0000 0.0 0.0
C_26979 N_2176119003_60c6537 N_2176119002_4416c31 22.6000 0.0250 0.0000 0.0000 0.0 0.0
C_26991 N_2176130101_ba6da88 N_2176130102_2822836 34.0000 0.0250 0.0000 0.0000 0.0 0.0
C_26992 N_2176130102_2822836 N_2176130103_c1949a0 14.0000 0.0160 0.0000 0.0000 0.0 0.0
C_26993 N_2176130103_c1949a0 N_2176130201_c4188f5 12.4000 0.0250 0.0000 0.0000 0.0 0.0
C_26994 N_2176130201_c4188f5 N_2176130202_1a581c1 30.1000 0.0250 0.0000 0.0000 0.0 0.0
C_26995 N_2176130202_1a581c1 N_2176130203_eeb7ea3 30.0000 0.0250 0.0000 0.0000 0.0 0.0
C_26996 N_2176130203_eeb7ea3 N_2176131201_a64d234 30.1000 0.0250 0.0000 0.0000 0.0 0.0
C_26997 N_2176130501_a1227c3 N_2176130502_8c070fe 43.1000 0.0250 0.0000 0.0000 0.0 0.0
C_26998 N_2176130502_8c070fe N_2176130503_452770a 29.9000 0.0250 0.0000 0.0000 0.0 0.0
C_26999 N_2176130503_452770a N_2176131501_d285c62 30.0000 0.0250 0.0000 0.0000 0.0 0.0
C_27000 N_2176130701_0076b2d N_2176130702_c8ece54 20.1000 0.0250 0.0000 0.0000 0.0 0.0
C_27001 N_2176130702_c8ece54 N_2176131701_1a81b41 7.6000 0.0160 0.0000 0.0000 0.0 0.0
C_27002 N_2176130801_9a83715 N_2176130802_29bab27 27.9000 0.0160 0.0000 0.0000 0.0 0.0
C_27003 N_2176130802_29bab27 N_2176130803_4f3f40e 30.6000 0.0250 0.0000 0.0000 0.0 0.0
C_27004 N_2176130803_4f3f40e N_2176130701_0076b2d 28.5000 0.0250 0.0000 0.5610 0.0 0.0
C_27005 N_2176131201_a64d234 N_2176131202_acd41d8 29.8000 0.0160 0.0000 0.0000 0.0 0.0
C_27006 N_2176131202_acd41d8 N_2176131203_e017ed3 13.6000 0.0250 0.0000 0.0000 0.0 0.0
C_27007 N_2176131203_e017ed3 N_2176131301_61cf757 33.6000 0.0160 0.0000 0.0000 0.0 0.0
C_27008 N_2176131301_61cf757 N_2176131302_75eac93 29.0000 0.0250 0.0000 0.0000 0.0 0.0
C_27009 N_2176131302_75eac93 N_2176132302_62f2eb8 52.1000 0.0250 0.0000 1.6410 0.0 0.0
C_27010 N_2176131303_e446ce9 N_2176132301_502d42d 28.3000 0.0250 0.0000 0.0000 0.0 0.0
C_27011 N_2176131401_6b4734c N_2176131303_e446ce9 41.8000 0.0250 0.0000 0.0000 0.0 0.0
C_27012 N_2176131402_15a1f81 N_2176131401_6b4734c 54.9000 0.0250 0.0000 0.0000 0.0 0.0
C_27013 N_2176131501_d285c62 N_2176131502_c3027c3 30.0000 0.0250 0.0000 0.0000 0.0 0.0
C_27014 N_2176131502_c3027c3 N_2176131503_fb3a5ab 25.0000 0.0160 0.0000 0.0000 0.0 0.0
C_27015 N_2176131503_fb3a5ab N_2176131504_2c93a56 24.2000 0.0250 0.0000 0.0000 0.0 0.0
C_27016 N_2176131504_2c93a56 N_2176131506_e4e38d8 15.0000 0.0160 0.0000 1.1830 0.0 0.0
C_27017 N_2176131505_7164a1f N_2176131506_e4e38d8 35.0000 0.0250 0.0000 0.0000 0.0 0.0
C_27018 N_2176131506_e4e38d8 N_2176131507_44800c2 22.3000 0.0250 0.0000 0.0000 0.0 0.0
C_27019 N_2176131507_44800c2 N_2176131402_15a1f81 61.4000 0.0250 0.0000 0.0000 0.0 0.0
C_27020 N_2176131601_6bf0eba N_2176131602_3035824 19.1000 0.0250 0.0000 0.0000 0.0 0.0
C_27021 N_2176131602_3035824 N_2176131505_7164a1f 21.7000 0.0160 0.0000 0.0000 0.0 0.0
C_27022 N_2176131603_e834855 N_2176131601_6bf0eba 31.7000 0.0250 0.0000 0.0000 0.0 0.0
C_27023 N_2176131701_1a81b41 N_2176131702_f236e1b 32.5000 0.0250 0.0000 0.0000 0.0 0.0
C_27024 N_2176131702_f236e1b N_2176131703_1d9f74f 29.8000 0.0250 0.0000 0.0000 0.0 0.0
C_27025 N_2176131703_1d9f74f N_2176131704_a571d93 30.2000 0.0250 0.0000 0.0000 0.0 0.0
C_27026 N_2176131704_a571d93 N_2176131705_2ec3f7a 16.9000 0.0250 0.0000 0.0000 0.0 0.0
C_27027 N_2176131705_2ec3f7a N_2176132701_615865b 12.4000 0.0250 0.0000 0.3100 0.0 0.0
C_27028 N_2176132301_502d42d N_2176132302_62f2eb8 26.2000 0.0250 0.0000 0.6240 0.0 0.0
C_27029 N_2176132302_62f2eb8 N_2176132303_7ff8ed6 47.4000 0.0250 0.0000 0.0000 0.0 0.0
C_27030 N_2176132303_7ff8ed6 N_2176133301_6cb46a1 27.0000 0.0160 0.0000 0.0000 0.0 0.0
C_27031 N_2176132701_615865b N_2176131603_e834855 58.2000 0.0250 0.0000 0.0000 0.0 0.0
C_27032 N_2176132702_9f14e6b N_2176132701_615865b 32.9000 0.0250 0.0000 0.0000 0.0 0.0
C_27033 N_2176132703_f9906fc N_2176132702_9f14e6b 46.2000 0.0250 0.0000 0.0000 0.0 0.0
C_27034 N_2176133301_6cb46a1 N_2176133302_ec5b2fd 30.8000 0.0250 0.0000 0.0000 0.0 0.0
C_27035 N_2176133302_ec5b2fd N_2176133303_4d6759f 26.1000 0.0250 0.0000 0.0000 0.0 0.0
C_27036 N_2176133303_4d6759f N_2176134301_78da050 69.7000 0.0250 0.0000 0.0000 0.0 0.0
C_27037 N_2176133701_4123d4a N_2176132703_f9906fc 44.7000 0.0250 0.0000 0.0000 0.0 0.0
C_27038 N_2176133702_6cd9a43 N_2176133701_4123d4a 40.2000 0.0250 0.0000 0.0000 0.0 0.0
C_27039 N_2176133703_fc837ad N_2176133704_461857b 16.8000 0.0250 0.0000 0.0000 0.0 0.0
C_27040 N_2176133704_461857b N_2176133702_6cd9a43 12.9000 0.0250 0.0000 0.0000 0.0 0.0
C_27041 N_2176133801_9ae8ccc N_2176133703_fc837ad 30.3000 0.0250 0.0000 0.0000 0.0 0.0
C_27042 N_2176133802_5e5fe62 N_2176133801_9ae8ccc 30.3000 0.0250 0.0000 0.0000 0.0 0.0
C_27043 N_2176133803_f147ae9 N_2176133802_5e5fe62 29.4000 0.0250 0.0000 0.0000 0.0 0.0
C_27044 N_2176133804_aeb77f0 N_2176133803_f147ae9 24.3000 0.0250 0.0000 0.0000 0.0 0.0
C_27045 N_2176134301_78da050 N_2176134302_1debad7 28.9000 0.0250 0.0000 0.0000 0.0 0.0
C_27046 N_2176134302_1debad7 N_2176134303_627dcda 28.3000 0.0250 0.0000 0.0000 0.0 0.0
C_27047 N_2176134303_627dcda N_2176135301_3818e4c 30.7000 0.0250 0.0000 0.0000 0.0 0.0
C_27048 N_2176134801_26ac245 N_2176133804_aeb77f0 30.1000 0.0160 0.0000 0.0000 0.0 0.0
C_27049 N_2176134802_47f645a N_2176134801_26ac245 27.4000 0.0250 0.0000 0.0000 0.0 0.0
C_27050 N_2176134803_ff759e0 N_2176134802_47f645a 31.8000 0.0250 0.0000 0.0000 0.0 0.0
C_27051 N_2176134901_bedf0cf N_2176134803_ff759e0 28.2000 0.0250 0.0000 0.0000 0.0 0.0
C_27052 N_2176134902_47db87b N_2176134901_bedf0cf 29.9000 0.0250 0.0000 0.0000 0.0 0.0
C_27053 N_2176135301_3818e4c N_2176135302_3ee42e5 34.4000 0.0250 0.0000 0.0000 0.0 0.0
C_27054 N_2176135302_3ee42e5 N_2176135303_3e48c18 32.5000 0.0250 0.0000 0.0000 0.0 0.0
C_27055 N_2176135303_3e48c18 N_2176136301_f84c857 35.1000 0.0160 0.0000 0.0000 0.0 0.0
C_27056 N_2176135901_234a18c N_2176134902_47db87b 30.0000 0.0250 0.0000 0.0000 0.0 0.0
C_27057 N_2176135902_a371e8e N_2176135901_234a18c 29.8000 0.0250 0.0000 0.0000 0.0 0.0
C_27058 N_2176136201_9df6c3b N_2176137201_2488f74 29.9000 0.0250 0.0000 0.0000 0.0 0.0
C_27059 N_2176136301_f84c857 N_2176136302_a4eeff6 12.5000 0.0250 0.0000 0.0000 0.0 0.0
C_27060 N_2176136302_a4eeff6 N_2176136303_fcc30a4 29.8000 0.0250 0.0000 0.0000 0.0 0.0
C_27061 N_2176136303_fcc30a4 N_2176136201_9df6c3b 30.0000 0.0250 0.0000 0.0000 0.0 0.0
C_27062 N_2176137201_2488f74 N_2176137202_918d79b 29.9000 0.0250 0.0000 0.0000 0.0 0.0
C_27063 N_2176137202_918d79b N_2176137203_388a2a9 30.1000 0.0250 0.0000 0.6230 0.0 0.0
C_27064 N_2176137203_388a2a9 N_2176137204_9a9e42b 30.2000 0.0250 0.0000 0.0000 0.0 0.0
C_27065 N_2176137204_9a9e42b N_2176138201_3b912ef 29.9000 0.0250 0.0000 0.0000 0.0 0.0
C_27067 N_2176138201_3b912ef N_2176138202_dce6190 33.2000 0.0250 0.0000 0.0000 0.0 0.0
C_27068 N_2176138202_dce6190 N_2176138203_88f3c46 14.9000 0.0250 0.0000 0.0000 0.0 0.0
C_27075 N_2176140401_886fc71 N_2176140502_4999530 66.2000 0.0160 0.0000 0.0000 0.0 0.0
C_27076 N_2176140501_ab282ba N_2175149501_cffd414 69.0000 0.0160 0.0000 0.0000 0.0 0.0
C_27077 N_2176140502_4999530 N_2176140501_ab282ba 26.1000 0.0160 0.0000 0.0000 0.0 0.0
C_27078 N_2176141601_577c7c3 N_2176140401_886fc71 164.6000 0.0160 0.0000 0.0000 0.0 0.0
C_27079 N_2176141901_e65e429 N_2176141902_96b3244 40.0000 0.0160 0.0000 0.0000 0.0 0.0
C_27080 N_2176141902_96b3244 N_2176142901_64788fa 83.0000 0.0160 0.0000 0.0000 0.0 0.0
C_27081 N_2176142701_d4bdfd3 N_2176141601_577c7c3 138.3000 0.0160 0.0000 0.0000 0.0 0.0
C_27082 N_2176142901_64788fa N_2176143801_ef91349 121.4000 0.0160 0.0000 0.0000 0.0 0.0
C_27084 N_2176143801_ef91349 N_2176142701_d4bdfd3 137.1000 0.0160 0.0000 0.0000 0.0 0.0
C_27089 N_2176145001_73a5b1f N_2176145002_abfcad7 19.5000 0.0250 0.0000 0.0000 0.0 0.0
C_27090 N_2176145002_abfcad7 N_2176145003_a10c01e 11.0000 0.0160 0.0000 0.8000 0.0 0.0
C_27091 N_2176145003_a10c01e N_2176145005_1b6f231 18.7000 0.0250 0.0000 0.0000 0.0 0.0
C_27092 N_2176145004_2c26ee4 N_2176135902_a371e8e 28.1000 0.0250 0.0000 0.0000 0.0 0.0
C_27093 N_2176145005_1b6f231 N_2176145004_2c26ee4 35.6000 0.0250 0.0000 0.0000 0.0 0.0
C_27094 N_2176145101_f2db154 N_2176145001_73a5b1f 34.6000 0.0250 0.0000 0.0000 0.0 0.0
C_27095 N_2176145102_8df2215 N_2176145101_f2db154 30.2000 0.0250 0.0000 0.0000 0.0 0.0
C_27096 N_2176145103_cb6655d N_2176145102_8df2215 30.4000 0.0250 0.0000 0.0000 0.0 0.0
C_27097 N_2176145104_599560a N_2176145103_cb6655d 24.5000 0.0250 0.0000 0.0000 0.0 0.0
C_27098 N_2176145301_e7072ba N_2176145302_c5ab9fa 30.1000 0.0250 0.0000 0.0000 0.0 0.0
C_27099 N_2176145302_c5ab9fa N_2176146301_9a2dd11 26.1000 0.0250 0.0000 0.0000 0.0 0.0
C_27100 N_2176145401_08f44e1 N_2176145402_12450a3 28.5000 0.0250 0.0000 0.0000 0.0 0.0
C_27101 N_2176145402_12450a3 N_2176145301_e7072ba 30.0000 0.0250 0.0000 0.0000 0.0 0.0
C_27102 N_2176145403_d78e2f6 N_2176145401_08f44e1 29.4000 0.0250 0.0000 0.0000 0.0 0.0
C_27103 N_2176145501_35bd8a0 N_2176145502_8088bea 30.3000 0.0250 0.0000 0.0000 0.0 0.0
C_27104 N_2176145502_8088bea N_2176145503_49199a3 28.8000 0.0250 0.0000 0.0000 0.0 0.0
C_27105 N_2176145503_49199a3 N_2176145504_b5f26f2 29.4000 0.0250 0.0000 0.0000 0.0 0.0
C_27106 N_2176145504_b5f26f2 N_2176145403_d78e2f6 35.5000 0.0250 0.0000 0.0000 0.0 0.0
C_27109 N_2176145603_b46da0b N_2176145501_35bd8a0 28.5000 0.0250 0.0000 0.0000 0.0 0.0
C_27110 N_2176145604_3babfdd N_2176145603_b46da0b 35.8000 0.0250 0.0000 0.0000 0.0 0.0
C_27111 N_2176145605_683c813 N_2176145604_3babfdd 5.0000 0.0160 0.0000 0.0000 0.0 0.0
C_27113 N_2176146201_3463897 N_2176145104_599560a 32.8000 0.0250 0.0000 0.0000 0.0 0.0
C_27114 N_2176146202_f5ee4e4 N_2176146201_3463897 32.6000 0.0250 0.0000 0.0000 0.0 0.0
C_27115 N_2176146203_5a9bafe N_2176146202_f5ee4e4 45.4000 0.0160 0.0000 0.0000 0.0 0.0
C_27116 N_2176146204_1ac573a N_2176146203_5a9bafe 15.3000 0.0250 0.0000 0.9000 0.0 0.0
C_27117 N_2176146301_9a2dd11 N_2176146302_a1d2345 30.1000 0.0250 0.0000 0.0000 0.0 0.0
C_27118 N_2176146302_a1d2345 N_2176146304_63b1bbe 11.9000 0.0250 0.0000 0.0000 0.0 0.0
C_27119 N_2176146303_b236e9e N_2176146204_1ac573a 28.4000 0.0250 0.0000 0.0000 0.0 0.0
C_27120 N_2176146304_63b1bbe N_2176146303_b236e9e 18.2000 0.0250 0.0000 0.0000 0.0 0.0
C_27121 N_2176146601_aad2494 N_2176145605_683c813 21.7000 0.0250 0.0000 0.0000 0.0 0.0
C_27122 N_2176146602_8ea629a N_2176146601_aad2494 11.6000 0.0250 0.0000 0.0000 0.0 0.0
C_27123 N_2176146603_90b2b48 N_2176146602_8ea629a 5.2000 0.0160 0.0000 0.0000 0.0 0.0
C_27124 N_2176146604_bc092af N_2176146603_90b2b48 9.0000 0.0250 0.0000 0.0000 0.0 0.0
C_27125 N_2176146605_7a746de N_2176146604_bc092af 35.7000 0.0250 0.0000 0.0000 0.0 0.0
C_27126 N_2176146701_b94bc72 N_2176146605_7a746de 27.3000 0.0250 0.0000 0.0000 0.0 0.0
C_27127 N_2176146702_3b6c548 N_2176146701_b94bc72 30.3000 0.0250 0.0000 0.0000 0.0 0.0
C_27128 N_2176147701_bab95b6 N_2176146702_3b6c548 32.2000 0.0250 0.0000 0.0000 0.0 0.0
C_27129 N_2176147702_1d221c9 N_2176147701_bab95b6 20.4000 0.0250 0.0000 0.0000 0.0 0.0
C_27130 N_2176147703_287f862 N_2176147702_1d221c9 28.3000 0.0250 0.0000 0.0000 0.0 0.0
C_27131 N_2176147801_4802fb0 N_2176147703_287f862 38.0000 0.0250 0.0000 0.0000 0.0 0.0
C_27132 N_2176147802_1f680d9 N_2176147801_4802fb0 37.4000 0.0250 0.0000 0.0000 0.0 0.0
C_27133 N_2176147803_5c32444 N_2176147802_1f680d9 26.2000 0.0250 0.0000 0.0000 0.0 0.0
C_27134 N_2176147804_66a4857 N_2176147803_5c32444 29.5000 0.0250 0.0000 0.0000 0.0 0.0
C_27135 N_2176147901_9d9908c N_2176147902_7013b6c 34.0000 0.0250 0.0000 0.0000 0.0 0.0
C_27136 N_2176147902_7013b6c N_2176147903_41358e2 20.3000 0.0250 0.0000 0.0000 0.0 0.0
C_27137 N_2176147903_41358e2 N_2176147804_66a4857 48.3000 0.0250 0.0000 0.0000 0.0 0.0
C_27140 N_2176156101_cdebd0c N_2176156102_d26e96d 39.4000 0.0160 0.0000 0.0000 0.0 0.0
C_27141 N_2176156102_d26e96d N_2176156103_8420126 46.8000 0.0160 0.0000 0.0000 0.0 0.0
C_27142 N_2176156103_8420126 N_2176157101_e04a53b 52.1000 0.0160 0.0000 0.0000 0.0 0.0
C_27143 N_2176156201_0a9cbc7 N_2176156101_cdebd0c 108.7000 0.0160 0.0000 0.0000 0.0 0.0
C_27144 N_2176156202_94324b1 N_2176156201_0a9cbc7 47.1000 0.0160 0.0000 0.0000 0.0 0.0
C_27145 N_2176156301_a53d86d N_2176156302_0dc072a 47.0000 0.0250 0.0000 0.0000 0.0 0.0
C_27146 N_2176156302_0dc072a N_2176156202_94324b1 123.3000 0.0160 0.0000 0.0000 0.0 0.0
C_27147 N_2176157001_e179061 N_2176157002_0b32c2b 34.2000 0.0250 0.0000 0.0000 0.0 0.0
C_27148 N_2176157002_0b32c2b N_2176147901_9d9908c 43.5000 0.0250 0.0000 0.0000 0.0 0.0
C_27149 N_2176157101_e04a53b N_2176157001_e179061 40.4000 0.0250 0.0000 0.0000 0.0 0.0
C_27150 N_2176157401_a0538f4 N_2176156301_a53d86d 129.5000 0.0250 0.0000 0.0000 0.0 0.0
C_27151 N_2176157402_5121d38 N_2176157401_a0538f4 20.9000 0.0250 0.0000 0.0000 0.0 0.0
C_27152 N_2176157501_1296131 N_2176157402_5121d38 77.6000 0.0250 0.0000 0.0000 0.0 0.0
C_27153 N_2176157601_f1c899a N_2176157501_1296131 59.2000 0.0250 0.0000 0.0000 0.0 0.0
C_27154 N_2176157602_51bd60c N_2176157603_cece9ea 37.7000 0.0250 0.0000 0.0000 0.0 0.0
C_27155 N_2176157603_cece9ea N_2176157601_f1c899a 57.0000 0.0250 0.0000 0.0000 0.0 0.0
C_27156 N_2176157604_18819ab N_2176157602_51bd60c 46.3000 0.0250 0.0000 0.0000 0.0 0.0
C_27157 N_2176157701_0e04fb2 N_2176158701_0fa4e6c 37.8000 0.0250 0.0000 0.0000 0.0 0.0
C_27158 N_2176158701_0fa4e6c N_2176157604_18819ab 31.3000 0.0250 0.0000 0.0000 0.0 0.0
C_27159 N_2176158801_53280ec N_2176157701_0e04fb2 66.3000 0.0250 0.0000 0.0000 0.0 0.0
C_27819 N_2177054801_f911f67 N_2177054904_dde8c17 30.1000 0.0250 0.0000 0.0000 0.0 0.0
C_27820 N_2177054802_f36a9d4 N_2177054801_f911f67 30.0000 0.0250 0.0000 0.0000 0.0 0.0
C_27821 N_2177054803_3436a23 N_2177054802_f36a9d4 30.0000 0.0250 0.0000 0.0000 0.0 0.0
C_27822 N_2177054804_4999d64 N_2177054803_3436a23 7.2000 0.0250 0.0000 0.0000 0.0 0.0
C_27823 N_2177054805_aa8dcee N_2177054804_4999d64 12.5000 0.0160 0.0000 0.0000 0.0 0.0
C_27824 N_2177054901_4d99706 N_2177063010_6305701 30.0000 0.0250 0.0000 0.0000 0.0 0.0
C_27825 N_2177054902_2ca95ae N_2177054901_4d99706 30.1000 0.0250 0.0000 0.0000 0.0 0.0
C_27826 N_2177054903_7daa600 N_2177054902_2ca95ae 30.1000 0.0250 0.0000 0.0000 0.0 0.0
C_27827 N_2177054904_dde8c17 N_2177054903_7daa600 30.0000 0.0250 0.0000 0.0000 0.0 0.0
C_27835 N_2177055701_dd20055 N_2177054805_aa8dcee 10.2000 0.0250 0.0000 0.0000 0.0 0.0
C_27836 N_2177055702_5c56695 N_2177055701_dd20055 30.0000 0.0250 0.0000 0.0000 0.0 0.0
C_27837 N_2177055703_1aac109 N_2177055702_5c56695 29.9000 0.0250 0.0000 0.0000 0.0 0.0
C_27838 N_2177055704_4550459 N_2177055703_1aac109 12.3000 0.0250 0.0000 0.0000 0.0 0.0
C_27839 N_2177055705_0245413 N_2177055704_4550459 19.2000 0.0250 0.0000 0.0000 0.0 0.0
C_27840 N_2177055706_9f01a26 N_2177055705_0245413 30.0000 0.0250 0.0000 0.0000 0.0 0.0
C_27849 N_2177056701_765798f N_2177055706_9f01a26 30.0000 0.0250 0.0000 0.0000 0.0 0.0
C_27850 N_2177056702_032f1e3 N_2177056701_765798f 30.0000 0.0250 0.0000 0.0000 0.0 0.0
C_27851 N_2177056703_f5da5bd N_2177056702_032f1e3 17.1000 0.0250 0.0000 0.0000 0.0 0.0
C_27852 N_2177056704_1f6448f N_2177056703_f5da5bd 7.8000 0.0160 0.0000 0.0000 0.0 0.0
C_27853 N_2177056801_a147267 N_2177056704_1f6448f 5.1000 0.0250 0.0000 0.0000 0.0 0.0
C_27854 N_2177056802_a6803ca N_2177056801_a147267 30.0000 0.0250 0.0000 0.0000 0.0 0.0
C_27867 N_2177057801_cfc8b9f N_2177056802_a6803ca 30.0000 0.0250 0.0000 0.0000 0.0 0.0
C_27868 N_2177057802_e071dbb N_2177057801_cfc8b9f 30.0000 0.0250 0.0000 0.0000 0.0 0.0
C_27869 N_2177057803_93953ce N_2177057802_e071dbb 29.9000 0.0250 0.0000 0.0000 0.0 0.0
C_27870 N_2177057804_3489f13 N_2177057803_93953ce 30.1000 0.0250 0.0000 0.0000 0.0 0.0
C_27875 N_2177058801_323ce0b N_2177057804_3489f13 23.0000 0.0250 0.0000 0.0000 0.0 0.0
C_27876 N_2177058802_a6f7f75 N_2177058801_323ce0b 7.0000 0.0160 0.0000 0.0000 0.0 0.0
C_27877 N_2177058803_e73b116 N_2177058802_a6f7f75 20.4000 0.0160 0.0000 0.0000 0.0 0.0
C_27878 N_2177058804_158dced N_2177058803_e73b116 9.7000 0.0250 0.0000 0.0000 0.0 0.0
C_27879 N_2177058901_618378e N_2177058804_158dced 30.0000 0.0250 0.0000 0.0000 0.0 0.0
C_27894 N_2177059901_e7b6b3c N_2177058901_618378e 30.0000 0.0250 0.0000 0.0000 0.0 0.0
C_27895 N_2177059902_fd82b84 N_2177059901_e7b6b3c 30.0000 0.0250 0.0000 0.0000 0.0 0.0
C_27896 N_2177059903_a071a2a N_2177059902_fd82b84 30.0000 0.0250 0.0000 0.0000 0.0 0.0
C_27897 N_2177059904_16f036b N_2177059903_a071a2a 30.0000 0.0250 0.0000 0.0000 0.0 0.0
C_27898 N_2177060001_92ea60d N_2176059901_948bddd 152.6000 0.0250 0.0000 0.0000 0.0 0.0
C_27899 N_2177060002_0f96e68 N_2177060001_92ea60d 39.5000 0.0250 0.0000 0.7990 0.0 0.0
C_27900 N_2177060003_e143a4f N_2177060002_0f96e68 30.1000 0.0250 0.0000 0.0000 0.0 0.0
C_27901 N_2177060201_f04462e N_2177060001_92ea60d 183.1000 0.0250 0.0000 0.0000 0.0 0.0
C_27902 N_2177060401_8830ab5 N_2177060201_f04462e 144.4000 0.0250 0.0000 0.0000 0.0 0.0
C_27903 N_2177060901_a9973cb N_2176069901_8ad8c27 29.5000 0.0250 0.0000 0.0000 0.0 0.0
C_27904 N_2177060902_71e4e41 N_2177060901_a9973cb 30.0000 0.0250 0.0000 0.0000 0.0 0.0
C_27905 N_2177060903_ce9f6d2 N_2177060902_71e4e41 27.7000 0.0250 0.0000 0.0000 0.0 0.0
C_27906 N_2177060904_b568669 N_2177060903_ce9f6d2 29.8000 0.0250 0.0000 0.0000 0.0 0.0
C_27907 N_2177061001_c6c41f4 N_2177060003_e143a4f 30.0000 0.0250 0.0000 0.0000 0.0 0.0
C_27908 N_2177061002_b1d73b9 N_2177061001_c6c41f4 29.9000 0.0250 0.0000 0.0000 0.0 0.0
C_27909 N_2177061003_21da1e4 N_2177061002_b1d73b9 30.1000 0.0250 0.0000 0.0000 0.0 0.0
C_27910 N_2177061901_85bf590 N_2177060904_b568669 46.0000 0.0160 0.0000 0.0000 0.0 0.0
C_27911 N_2177061902_ebebde1 N_2177061901_85bf590 33.1000 0.0160 0.0000 0.0000 0.0 0.0
C_27912 N_2177061903_c3d2702 N_2177061902_ebebde1 21.7000 0.0160 0.0000 0.0000 0.0 0.0
C_27913 N_2177062001_6245582 N_2177061003_21da1e4 29.9000 0.0250 0.0000 0.0000 0.0 0.0
C_27914 N_2177062002_e858a64 N_2177062001_6245582 30.0000 0.0250 0.0000 0.0000 0.0 0.0
C_27915 N_2177062003_e27e116 N_2177062002_e858a64 30.0000 0.0250 0.0000 0.0000 0.0 0.0
C_27916 N_2177062004_953abe7 N_2177062003_e27e116 30.0000 0.0250 0.0000 0.0000 0.0 0.0
C_27917 N_2177062005_ed543f0 N_2177062004_953abe7 4.9000 0.0250 0.0000 0.0000 0.0 0.0
C_27918 N_2177063001_01b46e5 N_2177062005_ed543f0 24.8000 0.0250 0.0000 0.0000 0.0 0.0
C_27919 N_2177063002_56a2402 N_2177063001_01b46e5 30.0000 0.0250 0.0000 0.0000 0.0 0.0
C_27920 N_2177063003_4e7ee69 N_2177063002_56a2402 19.5000 0.0250 0.0000 0.0000 0.0 0.0
C_27921 N_2177063004_2bc32e2 N_2177063003_4e7ee69 9.5000 0.0250 0.0000 0.0000 0.0 0.0
C_27922 N_2177063005_b215e2e N_2177063004_2bc32e2 4.6000 0.0250 0.0000 0.0000 0.0 0.0
C_27923 N_2177063006_1389090 N_2177063005_b215e2e 4.6000 0.0250 0.0000 0.0000 0.0 0.0
C_27924 N_2177063007_9bc04e3 N_2177063006_1389090 5.5000 0.0160 0.0000 0.0000 0.0 0.0
C_27925 N_2177063008_2f1c92e N_2177063003_4e7ee69 14.7000 0.0130 0.0000 0.1950 0.0 0.0
C_27926 N_2177063008_2f1c92e N_2177063003_4e7ee69 14.7000 0.0130 0.0000 0.1950 0.0 0.0
C_27927 N_2177063008_2f1c92e N_2177063003_4e7ee69 14.7000 0.0130 0.0000 0.1950 0.0 0.0
C_27928 N_2177063009_8cd9c80 N_2177063007_9bc04e3 15.0000 0.0250 0.0000 0.0000 0.0 0.0
C_27929 N_2177063010_6305701 N_2177063009_8cd9c80 30.0000 0.0250 0.0000 0.0000 0.0 0.0
C_27930 N_2177063011_62e65cb N_2177063008_2f1c92e 19.1000 0.0130 0.0000 0.0000 0.0 0.0
C_27931 N_2177063011_62e65cb N_2177063008_2f1c92e 19.1000 0.0130 0.0000 0.0000 0.0 0.0
C_27932 N_2177063011_62e65cb N_2177063008_2f1c92e 19.1000 0.0130 0.0000 0.0000 0.0 0.0
C_27933 N_2177064001_86ad72e N_2177063011_62e65cb 26.1000 0.0130 0.0000 0.0000 0.0 0.0
C_27934 N_2177064001_86ad72e N_2177063011_62e65cb 26.1000 0.0130 0.0000 0.0000 0.0 0.0
C_27935 N_2177064001_86ad72e N_2177063011_62e65cb 26.1000 0.0130 0.0000 0.0000 0.0 0.0
C_27936 N_2177064101_3765e0d N_2177064001_86ad72e 20.5000 0.0130 0.0000 0.0000 0.0 0.0
C_27937 N_2177064101_3765e0d N_2177064001_86ad72e 20.5000 0.0130 0.0000 0.0000 0.0 0.0
C_27938 N_2177064101_3765e0d N_2177064001_86ad72e 20.5000 0.0130 0.0000 0.0000 0.0 0.0
C_27939 N_2177064102_ca7facb N_2177064101_3765e0d 30.9000 0.0130 0.0000 0.0000 0.0 0.0
C_27940 N_2177064102_ca7facb N_2177064101_3765e0d 30.9000 0.0130 0.0000 0.0000 0.0 0.0
C_27941 N_2177064102_ca7facb N_2177064101_3765e0d 30.9000 0.0130 0.0000 0.0000 0.0 0.0
C_27942 N_2177065101_9adfff3 N_2177064102_ca7facb 57.4000 0.0130 0.0000 0.0000 0.0 0.0
C_27943 N_2177065101_9adfff3 N_2177064102_ca7facb 57.4000 0.0130 0.0000 0.0000 0.0 0.0
C_27944 N_2177065101_9adfff3 N_2177064102_ca7facb 57.4000 0.0130 0.0000 0.0000 0.0 0.0
C_27945 N_2177065102_3edf65a N_2177065101_9adfff3 27.3000 0.0130 0.0000 0.0000 0.0 0.0
C_27946 N_2177065102_3edf65a N_2177065101_9adfff3 27.3000 0.0130 0.0000 0.0000 0.0 0.0
C_27947 N_2177065102_3edf65a N_2177065101_9adfff3 27.3000 0.0130 0.0000 0.0000 0.0 0.0
C_27948 N_2177065103_51d40cf N_2177065102_3edf65a 39.6000 0.0130 0.0000 0.0000 0.0 0.0
C_27949 N_2177065103_51d40cf N_2177065102_3edf65a 39.6000 0.0130 0.0000 0.0000 0.0 0.0
C_27950 N_2177065103_51d40cf N_2177065102_3edf65a 39.6000 0.0130 0.0000 0.0000 0.0 0.0
C_27951 N_2177066101_e08cc53 N_2177065103_51d40cf 43.8000 0.0130 0.0000 0.0000 0.0 0.0
C_27952 N_2177066101_e08cc53 N_2177065103_51d40cf 43.8000 0.0130 0.0000 0.0000 0.0 0.0
C_27953 N_2177066101_e08cc53 N_2177065103_51d40cf 43.8000 0.0130 0.0000 0.0000 0.0 0.0
C_27954 N_2177066102_51dd0ce N_2177066101_e08cc53 69.2000 0.0130 0.0000 0.0000 0.0 0.0
C_27955 N_2177066102_51dd0ce N_2177066101_e08cc53 69.2000 0.0130 0.0000 0.0000 0.0 0.0
C_27956 N_2177066102_51dd0ce N_2177066101_e08cc53 69.2000 0.0130 0.0000 0.0000 0.0 0.0
C_27957 N_2177067201_4ce89ff N_2177066102_51dd0ce 73.2000 0.0130 0.0000 0.0000 0.0 0.0
C_27958 N_2177067201_4ce89ff N_2177066102_51dd0ce 73.2000 0.0130 0.0000 0.0000 0.0 0.0
C_27959 N_2177067201_4ce89ff N_2177066102_51dd0ce 73.2000 0.0130 0.0000 0.0000 0.0 0.0
C_27960 N_2177067801_5701e8f N_2177067904_fe4f23c 31.5000 0.0250 0.0000 0.0000 0.0 0.0
C_27961 N_2177067901_3fd470f N_2177077002_3f07c8f 38.2000 0.0250 0.0000 0.0000 0.0 0.0
C_27962 N_2177067902_133db61 N_2177067901_3fd470f 34.5000 0.0250 0.0000 0.0000 0.0 0.0
C_27963 N_2177067903_e5621c1 N_2177067902_133db61 29.6000 0.0250 0.0000 0.0000 0.0 0.0
C_27964 N_2177067904_fe4f23c N_2177067903_e5621c1 31.8000 0.0250 0.0000 0.0000 0.0 0.0
C_27965 N_2177068201_1cb161d N_2177067201_4ce89ff 83.1000 0.0130 0.0000 0.0000 0.0 0.0
C_27966 N_2177068201_1cb161d N_2177067201_4ce89ff 83.1000 0.0130 0.0000 0.0000 0.0 0.0
C_27967 N_2177068201_1cb161d N_2177067201_4ce89ff 83.1000 0.0130 0.0000 0.0000 0.0 0.0
C_27968 N_2177068701_00a7d32 N_2177068802_71684fe 33.2000 0.0250 0.0000 0.0000 0.0 0.0
C_27969 N_2177068702_e8a798e N_2177068701_00a7d32 27.3000 0.0250 0.0000 0.0000 0.0 0.0
C_27970 N_2177068703_7320a0f N_2177068803_71e3663 10.8000 0.0250 0.0000 0.0000 0.0 0.0
C_27971 N_2177068801_35050e1 N_2177067801_5701e8f 31.2000 0.0250 0.0000 0.0000 0.0 0.0
C_27972 N_2177068802_71684fe N_2177068801_35050e1 30.8000 0.0250 0.0000 0.0000 0.0 0.0
C_27973 N_2177068803_71e3663 N_2177068702_e8a798e 25.7000 0.0250 0.0000 0.0000 0.0 0.0
C_27974 N_2177069301_ad6f30a N_2177068201_1cb161d 85.8000 0.0130 0.0000 0.0000 0.0 0.0
C_27975 N_2177069301_ad6f30a N_2177068201_1cb161d 85.8000 0.0130 0.0000 0.0000 0.0 0.0
C_27976 N_2177069301_ad6f30a N_2177068201_1cb161d 85.8000 0.0130 0.0000 0.0000 0.0 0.0
C_27977 N_2177069302_4a07e12 N_2177069301_ad6f30a 68.3000 0.0130 0.0000 0.0000 0.0 0.0
C_27978 N_2177069302_4a07e12 N_2177069301_ad6f30a 68.3000 0.0130 0.0000 0.0000 0.0 0.0
C_27979 N_2177069302_4a07e12 N_2177069301_ad6f30a 68.3000 0.0130 0.0000 0.0000 0.0 0.0
C_27980 N_2177069303_5241e8e N_2177069302_4a07e12 26.0000 0.0130 0.0000 0.0000 0.0 0.0
C_27981 N_2177069303_5241e8e N_2177069302_4a07e12 26.0000 0.0130 0.0000 0.0000 0.0 0.0
C_27982 N_2177069303_5241e8e N_2177069302_4a07e12 26.0000 0.0130 0.0000 0.0000 0.0 0.0
C_27983 N_2177069401_0f1934e N_2177069303_5241e8e 82.6000 0.0130 0.0000 0.0000 0.0 0.0
C_27984 N_2177069401_0f1934e N_2177069303_5241e8e 82.6000 0.0130 0.0000 0.0000 0.0 0.0
C_27985 N_2177069401_0f1934e N_2177069303_5241e8e 82.6000 0.0130 0.0000 0.0000 0.0 0.0
C_27986 N_2177069601_2c8cb24 N_2177069703_7e72608 30.4000 0.0250 0.0000 0.0000 0.0 0.0
C_27987 N_2177069602_dd2c2b9 N_2177069601_2c8cb24 30.7000 0.0250 0.0000 0.0000 0.0 0.0
C_27988 N_2177069603_05f1fed N_2177069602_dd2c2b9 28.6000 0.0250 0.0000 0.0000 0.0 0.0
C_27989 N_2177069604_ac7785d N_2177069603_05f1fed 31.1000 0.0250 0.0000 0.0000 0.0 0.0
C_27990 N_2177069701_d32b385 N_2177068703_7320a0f 29.2000 0.0250 0.0000 0.0000 0.0 0.0
C_27991 N_2177069702_5f9d985 N_2177069701_d32b385 30.1000 0.0250 0.0000 0.0000 0.0 0.0
C_27992 N_2177069703_7e72608 N_2177069702_5f9d985 29.7000 0.0250 0.0000 0.0000 0.0 0.0
C_27993 N_2177069801_fada290 N_2177068803_71e3663 12.2000 0.0160 0.0000 0.3350 0.0 0.0
C_27994 N_2177069802_1beb8d3 N_2177069801_fada290 16.0000 0.0160 0.0000 0.0000 0.0 0.0
C_27995 N_2177069803_4f97634 N_2177069802_1beb8d3 24.7000 0.0160 0.0000 0.0000 0.0 0.0
C_27996 N_2177069804_0bc9589 N_2177069803_4f97634 5.2000 0.0250 0.0000 0.0000 0.0 0.0
C_27997 N_2177069805_f80ceb5 N_2177069804_0bc9589 17.2000 0.0250 0.0000 0.0000 0.0 0.0
C_27998 N_2177069806_462c354 N_2177069805_f80ceb5 12.8000 0.0250 0.0000 0.0000 0.0 0.0
C_27999 N_2177069901_2748b26 N_2177069805_f80ceb5 79.8000 0.0250 0.0000 0.7240 0.0 0.0
C_28000 N_2177069902_c5350be N_2177069901_2748b26 60.4000 0.0250 0.0000 0.0000 0.0 0.0
C_28001 N_2177070801_bc99210 N_2176079802_c985136 48.3000 0.0250 0.0000 0.0000 0.0 0.0
C_28002 N_2177070901_e3253c5 N_2177070801_bc99210 68.4000 0.0250 0.0000 0.0000 0.0 0.0
C_28003 N_2177070902_2907d4e N_2177070903_ca91bbb 22.7000 0.0250 0.0000 0.0000 0.0 0.0
C_28004 N_2177070903_ca91bbb N_2177070901_e3253c5 17.4000 0.0160 0.0000 0.0000 0.0 0.0
C_28005 N_2177072001_8a2deaf N_2177061903_c3d2702 21.8000 0.0250 0.0000 0.0000 0.0 0.0
C_28006 N_2177072002_373606c N_2177072001_8a2deaf 43.9000 0.0250 0.0000 0.0000 0.0 0.0
C_28007 N_2177072003_e23ead0 N_2177072002_373606c 11.8000 0.0160 0.0000 0.0000 0.0 0.0
C_28008 N_2177072004_6a8a756 N_2177072003_e23ead0 31.2000 0.0250 0.0000 0.0000 0.0 0.0
C_28009 N_2177073001_6e49176 N_2177072004_6a8a756 30.3000 0.0250 0.0000 0.0000 0.0 0.0
C_28010 N_2177073002_dfb9525 N_2177073001_6e49176 30.1000 0.0250 0.0000 0.0000 0.0 0.0
C_28011 N_2177073003_58536dc N_2177073002_dfb9525 30.0000 0.0250 0.0000 0.0000 0.0 0.0
C_28012 N_2177073101_b4182e4 N_2177073003_58536dc 35.3000 0.0250 0.0000 0.0000 0.0 0.0
C_28013 N_2177074101_c4395d2 N_2177073101_b4182e4 32.5000 0.0250 0.0000 0.0000 0.0 0.0
C_28014 N_2177074102_521ca19 N_2177074101_c4395d2 29.8000 0.0250 0.0000 0.0000 0.0 0.0
C_28015 N_2177074103_7bca6b3 N_2177074102_521ca19 30.8000 0.0250 0.0000 0.0000 0.0 0.0
C_28016 N_2177075101_ed7dd04 N_2177074103_7bca6b3 30.4000 0.0250 0.0000 0.0000 0.0 0.0
C_28017 N_2177075102_8741c74 N_2177075101_ed7dd04 29.4000 0.0250 0.0000 0.0000 0.0 0.0
C_28018 N_2177075103_f3e2e9e N_2177075102_8741c74 30.3000 0.0250 0.0000 0.0000 0.0 0.0
C_28019 N_2177075201_9c11b90 N_2177075103_f3e2e9e 30.3000 0.0250 0.0000 0.0000 0.0 0.0
C_28020 N_2177076001_604e59a N_2177076105_030a9a7 33.7000 0.0250 0.0000 0.0000 0.0 0.0
C_28021 N_2177076101_6f6bfce N_2177076201_454b893 28.1000 0.0250 0.0000 0.0000 0.0 0.0
C_28022 N_2177076102_84afe60 N_2177076101_6f6bfce 28.2000 0.0250 0.0000 0.0000 0.0 0.0
C_28023 N_2177076103_2e69943 N_2177076102_84afe60 11.3000 0.0250 0.0000 0.0000 0.0 0.0
C_28024 N_2177076104_517b4ab N_2177076103_2e69943 24.2000 0.0250 0.0000 0.0000 0.0 0.0
C_28025 N_2177076105_030a9a7 N_2177076104_517b4ab 27.5000 0.0250 0.0000 0.0000 0.0 0.0
C_28026 N_2177076106_fdc779f N_2177076103_2e69943 32.6000 0.0250 0.0000 0.1350 0.0 0.0
C_28027 N_2177076201_454b893 N_2177075201_9c11b90 45.1000 0.0250 0.0000 0.0000 0.0 0.0
C_28028 N_2177077001_2ac98b0 N_2177076001_604e59a 28.3000 0.0250 0.0000 0.0000 0.0 0.0
C_28029 N_2177077002_3f07c8f N_2177077001_2ac98b0 30.3000 0.0250 0.0000 0.0000 0.0 0.0
C_28030 N_2177077101_9205beb N_2177076106_fdc779f 28.4000 0.0250 0.0000 0.0000 0.0 0.0
C_28031 N_2177077102_0b16b20 N_2177077101_9205beb 29.0000 0.0160 0.0000 0.0000 0.0 0.0
C_28032 N_2177077201_986bf33 N_2177077202_77c7061 69.2000 0.0250 0.0000 0.0000 0.0 0.0
C_28033 N_2177077202_77c7061 N_2177077102_0b16b20 32.8000 0.0160 0.0000 0.0000 0.0 0.0
C_28034 N_2177077203_0c394fe N_2177077202_77c7061 21.9000 0.0250 0.0000 0.0000 0.0 0.0
C_28035 N_2177077204_9a0ac7c N_2177077203_0c394fe 30.1000 0.0250 0.0000 0.0000 0.0 0.0
C_28036 N_2177077301_a048076 N_2177077302_5f5b20f 48.9000 0.0250 0.0000 0.0000 0.0 0.0
C_28037 N_2177077302_5f5b20f N_2177077201_986bf33 53.8000 0.0250 0.0000 0.0000 0.0 0.0
C_28038 N_2177077401_d5406a8 N_2177077301_a048076 63.0000 0.0250 0.0000 0.0000 0.0 0.0
C_28039 N_2177078201_ad2a7bd N_2177077204_9a0ac7c 30.0000 0.0250 0.0000 0.0000 0.0 0.0
C_28040 N_2177078202_6615d01 N_2177078201_ad2a7bd 30.0000 0.0250 0.0000 0.0000 0.0 0.0
C_28041 N_2177078301_6caa918 N_2177078202_6615d01 29.9000 0.0250 0.0000 0.0000 0.0 0.0
C_28042 N_2177078302_59c34c1 N_2177078301_6caa918 30.1000 0.0250 0.0000 0.0000 0.0 0.0
C_28043 N_2177078303_e92af4a N_2177078302_59c34c1 30.0000 0.0250 0.0000 0.0000 0.0 0.0
C_28044 N_2177079001_c132bd7 N_2177069902_c5350be 49.5000 0.0250 0.0000 0.0000 0.0 0.0
C_28045 N_2177079301_cc0bc64 N_2177078303_e92af4a 30.0000 0.0250 0.0000 0.0000 0.0 0.0
C_28046 N_2177079401_86bf3d9 N_2177079301_cc0bc64 21.3000 0.0250 0.0000 0.0000 0.0 0.0
C_28047 N_2177079402_24cc14b N_2177079401_86bf3d9 8.7000 0.0250 0.0000 0.0000 0.0 0.0
C_28048 N_2177079403_ef6d604 N_2177079402_24cc14b 29.9000 0.0250 0.0000 0.0000 0.0 0.0
C_28049 N_2177079404_1a7a6ff N_2177079403_ef6d604 30.0000 0.0250 0.0000 0.0000 0.0 0.0
C_28052 N_2177080201_f51465d N_2177080304_f17e8e9 29.7000 0.0250 0.0000 0.0000 0.0 0.0
C_28053 N_2177080301_b6e9bb1 N_2177080404_6b7dc29 30.1000 0.0250 0.0000 0.0000 0.0 0.0
C_28054 N_2177080302_fca8c8c N_2177080301_b6e9bb1 30.0000 0.0250 0.0000 0.0000 0.0 0.0
C_28055 N_2177080303_228133f N_2177080302_fca8c8c 30.0000 0.0250 0.0000 0.0000 0.0 0.0
C_28056 N_2177080304_f17e8e9 N_2177080303_228133f 30.1000 0.0250 0.0000 0.0000 0.0 0.0
C_28057 N_2177080401_138596b N_2177080501_1878b33 30.1000 0.0250 0.0000 0.0000 0.0 0.0
C_28058 N_2177080402_969d5bf N_2177080401_138596b 30.5000 0.0250 0.0000 0.0000 0.0 0.0
C_28059 N_2177080403_c12370f N_2177080402_969d5bf 30.3000 0.0250 0.0000 0.0000 0.0 0.0
C_28060 N_2177080404_6b7dc29 N_2177080403_c12370f 29.3000 0.0250 0.0000 0.0000 0.0 0.0
C_28061 N_2177080501_1878b33 N_2176089502_d486bff 30.2000 0.0250 0.0000 0.0000 0.0 0.0
C_28062 N_2177080601_1876fb5 N_2176089608_b89c783 30.0000 0.0250 0.0000 0.0000 0.0 0.0
C_28063 N_2177080602_01295a7 N_2177080601_1876fb5 29.9000 0.0250 0.0000 0.0000 0.0 0.0
C_28064 N_2177080701_b026bd4 N_2177080602_01295a7 29.8000 0.0250 0.0000 0.0000 0.0 0.0
C_28065 N_2177081001_9057848 N_2177070902_2907d4e 54.3000 0.0250 0.0000 0.0000 0.0 0.0
C_28066 N_2177081002_49fb9b9 N_2177081001_9057848 20.2000 0.0250 0.0000 0.0000 0.0 0.0
C_28068 N_2177081004_3a9e39a N_2177081002_49fb9b9 7.8000 0.0160 0.0000 0.0000 0.0 0.0
C_28071 N_2177081102_5cf7c24 N_2177081203_3bd1b62 15.0000 0.0250 0.0000 0.0000 0.0 0.0
C_28072 N_2177081103_fb1b7a9 N_2177081102_5cf7c24 32.7000 0.0250 0.0000 0.0000 0.0 0.0
C_28073 N_2177081104_7add54d N_2177081103_fb1b7a9 21.2000 0.0250 0.0000 0.0000 0.0 0.0
C_28074 N_2177081105_af81b71 N_2177081104_7add54d 28.6000 0.0250 1.4960 0.0000 0.0 0.0
C_28075 N_2177081201_3a10dd6 N_2177080201_f51465d 30.4000 0.0250 0.0000 0.0000 0.0 0.0
C_28076 N_2177081202_94efd71 N_2177081201_3a10dd6 12.9000 0.0250 0.0000 0.0000 0.0 0.0
C_28079 N_2177081203_3bd1b62 N_2177081202_94efd71 31.9000 0.0160 0.0000 0.0000 0.0 0.0
C_28080 N_2177081701_03b374c N_2177080701_b026bd4 30.2000 0.0250 0.0000 0.0000 0.0 0.0
C_28081 N_2177081702_4166f45 N_2177081701_03b374c 29.8000 0.0250 0.0000 0.0000 0.0 0.0
C_28082 N_2177081703_59085ff N_2177081702_4166f45 25.7000 0.0250 0.0000 0.0000 0.0 0.0
C_28083 N_2177081704_21cc03f N_2177081703_59085ff 2.9000 0.0160 0.0000 0.0000 0.0 0.0
C_28084 N_2177081705_fcbc628 N_2177081704_21cc03f 1.8000 0.0250 0.0000 0.0000 0.0 0.0
C_28085 N_2177081706_d337653 N_2177081705_fcbc628 29.9000 0.0250 0.0000 0.0000 0.0 0.0
C_28087 N_2177082101_c7a6565 N_2177081105_af81b71 51.5000 0.0250 0.0000 0.0000 0.0 0.0
C_28089 N_2177082103_9b733fd N_2177082101_c7a6565 42.1000 0.0250 0.0000 0.0000 0.0 0.0
C_28090 N_2177082701_64b66c6 N_2177081706_d337653 29.9000 0.0250 0.0000 0.0000 0.0 0.0
C_28091 N_2177082801_096d134 N_2177082701_64b66c6 30.1000 0.0250 0.0000 0.0000 0.0 0.0
C_28092 N_2177082802_334ad4a N_2177082801_096d134 29.9000 0.0250 0.0000 0.0000 0.0 0.0
C_28093 N_2177082803_15f6564 N_2177082802_334ad4a 13.7000 0.0160 0.0000 0.0000 0.0 0.0
C_28094 N_2177082804_c9609fd N_2177082803_15f6564 2.1000 0.0160 0.0000 0.0000 0.0 0.0
C_28095 N_2177082805_fe77774 N_2177082804_c9609fd 14.2000 0.0250 0.0000 0.0000 0.0 0.0
C_28096 N_2177082806_e66ae24 N_2177082805_fe77774 30.0000 0.0250 0.0000 0.0000 0.0 0.0
C_28099 N_2177083201_8dbe169 N_2177082103_9b733fd 29.7000 0.0250 0.0000 0.0000 0.0 0.0
C_28100 N_2177083202_5818340 N_2177083201_8dbe169 28.2000 0.0250 0.0000 0.0000 0.0 0.0
C_28101 N_2177083203_27a0b33 N_2177083202_5818340 32.4000 0.0250 0.0000 0.0000 0.0 0.0
C_28102 N_2177083801_8b81126 N_2177082806_e66ae24 29.8000 0.0250 0.0000 0.0000 0.0 0.0
C_28103 N_2177083802_b175fca N_2177083801_8b81126 30.0000 0.0250 0.0000 0.0000 0.0 0.0
C_28104 N_2177083901_df49852 N_2177083802_b175fca 18.0000 0.0250 0.0000 0.0000 0.0 0.0
C_28105 N_2177083902_e1c164f N_2177083901_df49852 26.5000 0.0160 0.0000 0.0000 0.0 0.0
C_28106 N_2177083903_9107fc5 N_2177083902_e1c164f 15.4000 0.0250 0.0000 0.0000 0.0 0.0
C_28108 N_2177084201_ee258db N_2177083203_27a0b33 46.6000 0.0250 0.0000 0.0000 0.0 0.0
C_28111 N_2177084301_576c3b2 N_2177084201_ee258db 111.0000 0.0250 0.0000 0.0000 0.0 0.0
C_28112 N_2177084901_074b6fd N_2177083903_9107fc5 30.0000 0.0250 0.0000 0.0000 0.0 0.0
C_28113 N_2177084902_d94269e N_2177084901_074b6fd 29.9000 0.0250 0.0000 0.0000 0.0 0.0
C_28114 N_2177084903_9e27641 N_2177084902_d94269e 30.1000 0.0250 0.0000 0.0000 0.0 0.0
C_28115 N_2177084904_5f783a0 N_2177084903_9e27641 15.8000 0.0250 0.0000 0.0000 0.0 0.0
C_28120 N_2177086401_2cab1c9 N_2177084301_576c3b2 178.5000 0.0250 0.0000 0.0000 0.0 0.0
C_28122 N_2177087501_256cef5 N_2177086401_2cab1c9 196.0000 0.0250 0.0000 0.0000 0.0 0.0
C_28125 N_2177090701_c78889e N_2177091701_f8d8535 32.1000 0.0160 0.0000 0.0000 0.0 0.0
C_28126 N_2177090801_a03e9cd N_2177090802_e63eda5 31.2000 0.0160 0.0000 0.0000 0.0 0.0
C_28127 N_2177090802_e63eda5 N_2177090803_0c0163c 31.9000 0.0160 0.0000 0.0000 0.0 0.0
C_28128 N_2177090803_0c0163c N_2177090804_3926b73 31.8000 0.0160 0.0000 0.0000 0.0 0.0
C_28129 N_2177090804_3926b73 N_2177090701_c78889e 31.0000 0.0160 0.0000 0.0000 0.0 0.0
C_28130 N_2177091701_f8d8535 N_2177091702_216f270 33.0000 0.0250 0.0000 0.0000 0.0 0.0
C_28131 N_2177091702_216f270 N_2177091703_d24dcd8 35.5000 0.0250 0.0000 0.0000 0.0 0.0
C_28132 N_2177091703_d24dcd8 N_2177091704_fe7e7bb 11.6000 0.0250 0.0000 0.0000 0.0 0.0
C_28133 N_2177091704_fe7e7bb N_2177092501_2349ecf 145.0000 0.0160 0.0000 0.0000 0.0 0.0
C_28134 N_2177091705_d1617c1 N_2177091703_d24dcd8 8.3000 0.0250 0.0000 0.0000 0.0 0.0
C_28135 N_2177091705_d1617c1 N_2177091706_6f3aa83 7.7000 0.0160 0.2390 0.0000 0.0 0.0
C_28136 N_2177091706_6f3aa83 N_2177091707_90d4e49 5.2000 0.0160 0.0000 0.0000 0.0 0.0
C_28137 N_2177091707_90d4e49 N_2177092601_ea8b11d 84.0000 0.0160 0.0000 0.0000 0.0 0.0
C_28138 N_2177091708_ddc81f7 N_2177091705_d1617c1 19.2000 0.0250 0.0000 0.2390 0.0 0.0
C_28139 N_2177092401_7537805 N_2177092402_243058d 31.4000 0.0250 0.0000 0.0000 0.0 0.0
C_28140 N_2177092402_243058d N_2177093401_3ff6c52 32.1000 0.0250 0.0000 0.0000 0.0 0.0
C_28141 N_2177092403_56b2017 N_2177093402_4539834 33.2000 0.0250 0.0000 0.0000 0.0 0.0
C_28142 N_2177092501_2349ecf N_2177092504_8230f1d 23.8000 0.0250 0.0000 0.0000 0.0 0.0
C_28143 N_2177092502_2f895c9 N_2177092503_6be653c 5.8000 0.0160 0.0000 0.0000 0.0 0.0
C_28144 N_2177092503_6be653c N_2177092505_1a93b0e 13.9000 0.0250 0.0000 0.0000 0.0 0.0
C_28145 N_2177092504_8230f1d N_2177092506_19523b1 31.8000 0.0250 0.0000 0.0000 0.0 0.0
C_28146 N_2177092505_1a93b0e N_2177092507_3af6afc 19.7000 0.0250 0.0000 0.0000 0.0 0.0
C_28147 N_2177092506_19523b1 N_2177092508_5db4028 31.6000 0.0250 0.0000 0.0000 0.0 0.0
C_28148 N_2177092507_3af6afc N_2177092509_cc8854c 21.8000 0.0250 0.0000 0.0000 0.0 0.0
C_28149 N_2177092508_5db4028 N_2177092401_7537805 31.9000 0.0250 0.0000 0.0000 0.0 0.0
C_28150 N_2177092509_cc8854c N_2177092510_94dd35a 31.9000 0.0250 0.0000 0.0000 0.0 0.0
C_28151 N_2177092510_94dd35a N_2177092403_56b2017 30.4000 0.0250 0.0000 0.0000 0.0 0.0
C_28152 N_2177092601_ea8b11d N_2177092602_52de2da 6.8000 0.0160 0.0000 0.0000 0.0 0.0
C_28153 N_2177092602_52de2da N_2177092603_785def3 8.1000 0.0160 0.0000 0.0000 0.0 0.0
C_28154 N_2177092603_785def3 N_2177092604_851daf0 11.2000 0.0160 0.0000 0.0000 0.0 0.0
C_28155 N_2177092604_851daf0 N_2177092605_16251bd 11.6000 0.0160 0.0000 0.0000 0.0 0.0
C_28156 N_2177092605_16251bd N_2177092502_2f895c9 13.2000 0.0250 0.0000 0.0000 0.0 0.0
C_28157 N_2177092701_4852727 N_2177091708_ddc81f7 28.8000 0.0250 0.0000 0.0000 0.0 0.0
C_28158 N_2177092702_bd96f6f N_2177092701_4852727 27.6000 0.0250 0.0000 0.0000 0.0 0.0
C_28159 N_2177092703_f1a5c78 N_2177092702_bd96f6f 30.1000 0.0250 0.0000 0.0000 0.0 0.0
C_28160 N_2177092801_86305a3 N_2177092703_f1a5c78 30.1000 0.0250 0.0000 0.0000 0.0 0.0
C_28161 N_2177092802_898131b N_2177092801_86305a3 27.6000 0.0250 0.0000 0.0000 0.0 0.0
C_28162 N_2177093201_3ab5395 N_2177093202_0896db6 31.8000 0.0250 0.0000 0.0000 0.0 0.0
C_28163 N_2177093202_0896db6 N_2177093203_9ee3ff8 31.4000 0.0250 0.0000 0.0000 0.0 0.0
C_28164 N_2177093203_9ee3ff8 N_2177093205_4c6da54 32.0000 0.0250 0.0000 0.0000 0.0 0.0
C_28165 N_2177093204_8d88be0 N_2177093206_5271db0 31.2000 0.0250 0.0000 0.0000 0.0 0.0
C_28166 N_2177093205_4c6da54 N_2177094101_80e3ed2 31.6000 0.0250 0.0000 0.0000 0.0 0.0
C_28167 N_2177093206_5271db0 N_2177094201_3badce6 32.0000 0.0250 0.0000 0.0000 0.0 0.0
C_28168 N_2177093301_7e1f41d N_2177093302_82f871a 31.6000 0.0250 0.0000 0.0000 0.0 0.0
C_28169 N_2177093302_82f871a N_2177093304_60c95e3 31.7000 0.0250 0.0000 0.0000 0.0 0.0
C_28170 N_2177093303_dbbce9e N_2177093305_a23fae7 32.2000 0.0250 0.0000 0.0000 0.0 0.0
C_28171 N_2177093304_60c95e3 N_2177093201_3ab5395 31.6000 0.0250 0.0000 0.0000 0.0 0.0
C_28172 N_2177093305_a23fae7 N_2177093306_2f411fd 31.3000 0.0250 0.0000 0.0000 0.0 0.0
C_28173 N_2177093306_2f411fd N_2177093307_b45f7a6 32.3000 0.0250 0.0000 0.0000 0.0 0.0
C_28174 N_2177093307_b45f7a6 N_2177093204_8d88be0 31.4000 0.0250 0.0000 0.0000 0.0 0.0
C_28175 N_2177093401_3ff6c52 N_2177093301_7e1f41d 31.4000 0.0250 0.0000 0.0000 0.0 0.0
C_28176 N_2177093402_4539834 N_2177093403_0a3ea9e 32.4000 0.0250 0.0000 0.0000 0.0 0.0
C_28177 N_2177093403_0a3ea9e N_2177093303_dbbce9e 31.3000 0.0250 0.0000 0.0000 0.0 0.0
C_28178 N_2177093801_95fa9d0 N_2177092802_898131b 32.2000 0.0250 0.0000 0.0000 0.0 0.0
C_28179 N_2177093802_d5be7f7 N_2177093801_95fa9d0 33.0000 0.0250 0.0000 0.0000 0.0 0.0
C_28180 N_2177093803_f805fc0 N_2177093802_d5be7f7 28.2000 0.0250 0.0000 0.0000 0.0 0.0
C_28181 N_2177093901_2c0b24c N_2177093803_f805fc0 30.2000 0.0250 0.0000 0.0000 0.0 0.0
C_28182 N_2177094001_e8a5c01 N_2177094002_aa79fe8 31.7000 0.0250 0.0000 0.0000 0.0 0.0
C_28183 N_2177094002_aa79fe8 N_2177094004_a42d5f2 31.5000 0.0250 0.0000 0.0000 0.0 0.0
C_28184 N_2177094003_030a6aa N_2177094005_b652a95 32.0000 0.0250 0.0000 0.0000 0.0 0.0
C_28185 N_2177094004_a42d5f2 N_2177094006_d6e5aa3 31.4000 0.0250 0.0000 0.0000 0.0 0.0
C_28186 N_2177094005_b652a95 N_2177094007_d0de870 34.3000 0.0250 0.0000 0.0000 0.0 0.0
C_28187 N_2177094006_d6e5aa3 N_2177084904_5f783a0 11.2000 0.0250 0.0000 0.0000 0.0 0.0
C_28188 N_2177094007_d0de870 N_2177094008_6649d12 37.0000 0.0250 0.0000 0.0000 0.0 0.0
C_28189 N_2177094008_6649d12 N_2177084904_5f783a0 14.1000 0.0250 0.0000 0.0000 0.0 0.0
C_28190 N_2177094101_80e3ed2 N_2177094102_4c5bbb1 31.6000 0.0250 0.0000 0.0000 0.0 0.0
C_28191 N_2177094102_4c5bbb1 N_2177094104_760fa1c 27.2000 0.0250 0.0000 0.0000 0.0 0.0
C_28192 N_2177094103_5995f02 N_2177094105_423d753 19.4000 0.0250 0.0000 0.0000 0.0 0.0
C_28193 N_2177094104_760fa1c N_2177094106_be33b25 20.6000 0.0160 0.0000 0.0000 0.0 0.0
C_28194 N_2177094105_423d753 N_2177094107_98d3ad2 24.7000 0.0160 0.0000 0.0000 0.0 0.0
C_28195 N_2177094106_be33b25 N_2177094001_e8a5c01 15.8000 0.0160 0.0000 0.0000 0.0 0.0
C_28196 N_2177094107_98d3ad2 N_2177094108_f3bb636 18.9000 0.0250 0.0000 0.0000 0.0 0.0
C_28197 N_2177094108_f3bb636 N_2177094003_030a6aa 31.1000 0.0250 0.0000 0.0000 0.0 0.0
C_28198 N_2177094201_3badce6 N_2177094103_5995f02 32.1000 0.0250 0.0000 0.0000 0.0 0.0
C_28199 N_2177094901_292316a N_2177093901_2c0b24c 29.8000 0.0250 0.0000 0.0000 0.0 0.0
C_28200 N_2177094902_6769a99 N_2177094901_292316a 29.6000 0.0250 0.0000 0.0000 0.0 0.0
C_28201 N_2177094903_b2c83fb N_2177094902_6769a99 30.2000 0.0250 0.0000 0.0000 0.0 0.0
C_28202 N_2177094904_deb6194 N_2177094903_b2c83fb 27.8000 0.0250 0.0000 0.0000 0.0 0.0
C_28203 N_2177094905_fa3be18 N_2177094904_deb6194 15.9000 0.0250 0.0000 0.0000 0.0 0.0
C_28204 N_2177095001_58bb755 N_2177094008_6649d12 29.9000 0.0250 0.0000 0.0000 0.0 0.0
C_28205 N_2177095002_1bd93e1 N_2177095001_58bb755 30.0000 0.0250 0.0000 0.0000 0.0 0.0
C_28206 N_2177095003_94f6d2d N_2177095002_1bd93e1 9.9000 0.0250 0.0000 0.0000 0.0 0.0
C_28207 N_2177095004_1958e3d N_2177095003_94f6d2d 3.3000 0.0160 0.0000 0.0000 0.0 0.0
C_28208 N_2177095005_1aff641 N_2177095006_5ded0ad 10.4000 0.0250 0.0000 0.0000 0.0 0.0
C_28209 N_2177095006_5ded0ad N_2177095004_1958e3d 9.5000 0.0250 0.0000 0.0000 0.0 0.0
C_28210 N_2177095007_b320744 N_2177095005_1aff641 27.2000 0.0250 0.0000 0.0000 0.0 0.0
C_28211 N_2177095101_210555a N_2177095007_b320744 29.9000 0.0250 0.0000 0.0000 0.0 0.0
C_28212 N_2177095901_2ede70d N_2177095902_44a1bb7 12.9000 0.0160 0.0000 0.0000 0.0 0.0
C_28213 N_2177095901_929e16c N_2177095902_8420168 12.9000 0.0160 0.0000 0.0000 0.0 0.0
C_28214 N_2177095902_44a1bb7 N_2177096901_e7f0778 13.6000 0.0250 0.0000 0.0000 0.0 0.0
C_28215 N_2177095902_8420168 N_2177096901_78625d1 13.6000 0.0250 0.0000 0.0000 0.0 0.0
C_28216 N_2177096101_b5ff73c N_2177095101_210555a 29.9000 0.0250 0.0000 0.0000 0.0 0.0
C_28217 N_2177096102_cd846ff N_2177096101_b5ff73c 30.0000 0.0250 0.0000 0.0000 0.0 0.0
C_28218 N_2177096103_83909cb N_2177096102_cd846ff 30.0000 0.0250 0.0000 0.0000 0.0 0.0
C_28219 N_2177096104_f722e4d N_2177096103_83909cb 29.9000 0.0250 0.0000 0.0000 0.0 0.0
C_28220 N_2177096201_1916d31 N_2177096104_f722e4d 29.9000 0.0250 0.0000 0.0000 0.0 0.0
C_28221 N_2177096202_ea9dd86 N_2177096201_1916d31 30.0000 0.0250 0.0000 0.0000 0.0 0.0
C_28222 N_2177096801_83984aa N_2177096802_5dbef54 2.1000 0.0160 0.0000 0.0000 0.0 0.0
C_28223 N_2177096801_ef33f7f N_2177096802_1b47f1b 2.1000 0.0160 0.0000 0.0000 0.0 0.0
C_28224 N_2177096802_5dbef54 N_2177096803_40979a1 4.6000 0.0160 0.0000 0.0000 0.0 0.0
C_28225 N_2177096802_1b47f1b N_2177096803_1c6ad1c 4.6000 0.0160 0.0000 0.0000 0.0 0.0
C_28226 N_2177096803_40979a1 N_2177096804_fcb6408 29.9000 0.0250 0.0000 0.0000 0.0 0.0
C_28227 N_2177096803_1c6ad1c N_2177096804_9493838 29.9000 0.0250 0.0000 0.0000 0.0 0.0
C_28228 N_2177096804_fcb6408 N_2177096805_5fe1293 8.7000 0.0250 0.0000 0.0000 0.0 0.0
C_28229 N_2177096804_9493838 N_2177096805_964141a 8.7000 0.0250 0.0000 0.0000 0.0 0.0
C_28230 N_2177096805_5fe1293 N_2177097806_51c2a6a 6.9000 0.0160 0.0000 0.0000 0.0 0.0
C_28231 N_2177096805_964141a N_2177097806_caa1d43 6.9000 0.0160 0.0000 0.0000 0.0 0.0
C_28232 N_2177096901_e7f0778 N_2177096902_961b653 25.7000 0.0160 0.0000 0.2440 0.0 0.0
C_28233 N_2177096901_78625d1 N_2177096902_00735fc 25.7000 0.0160 0.0000 0.2440 0.0 0.0
C_28234 N_2177096902_961b653 N_2177096903_3af60f3 20.7000 0.0160 0.0000 0.0000 0.0 0.0
C_28235 N_2177096902_00735fc N_2177096903_4f2442c 20.7000 0.0160 0.0000 0.0000 0.0 0.0
C_28236 N_2177096903_3af60f3 N_2177096905_e72db6e 30.1000 0.0250 0.0000 0.0000 0.0 0.0
C_28237 N_2177096903_4f2442c N_2177096905_44a3572 30.1000 0.0250 0.0000 0.0000 0.0 0.0
C_28238 N_2177096904_63ca0a9 N_2177096903_3af60f3 19.7000 0.0250 0.0000 0.0000 0.0 0.0
C_28239 N_2177096904_682a880 N_2177096903_4f2442c 19.7000 0.0250 0.0000 0.0000 0.0 0.0
C_28240 N_2177096905_e72db6e N_2177096906_4909874 14.7000 0.0250 0.0000 0.0000 0.0 0.0
C_28241 N_2177096905_44a3572 N_2177096906_8f7d68e 14.7000 0.0250 0.0000 0.0000 0.0 0.0
C_28242 N_2177096906_4909874 N_2177096907_6dc5384 3.4000 0.0160 0.0000 0.0000 0.0 0.0
C_28243 N_2177096906_8f7d68e N_2177096907_6da89ef 3.4000 0.0160 0.0000 0.0000 0.0 0.0
C_28244 N_2177096907_6dc5384 N_2177096801_83984aa 5.0000 0.0160 0.0000 0.0000 0.0 0.0
C_28245 N_2177096907_6da89ef N_2177096801_ef33f7f 5.0000 0.0160 0.0000 0.0000 0.0 0.0
C_28246 N_2177097201_b110c05 N_2177096202_ea9dd86 30.1000 0.0250 0.0000 0.0000 0.0 0.0
C_28247 N_2177097301_fc9dea7 N_2177097201_b110c05 29.8000 0.0250 0.0000 0.0000 0.0 0.0
C_28248 N_2177097302_c171dd5 N_2177097301_fc9dea7 30.1000 0.0250 0.0000 0.0000 0.0 0.0
C_28249 N_2177097303_761a287 N_2177097302_c171dd5 30.0000 0.0250 0.0000 0.0000 0.0 0.0
C_28250 N_2177097304_ad7b397 N_2177097303_761a287 29.9000 0.0250 0.0000 0.0000 0.0 0.0
C_28251 N_2177097401_75aee9b N_2177097304_ad7b397 29.9000 0.0250 0.0000 0.0000 0.0 0.0
C_28252 N_2177097402_0bbb9be N_2177097401_75aee9b 30.0000 0.0250 0.0000 0.0000 0.0 0.0
C_28253 N_2177097601_45f4958 N_2177097602_3994b34 12.8000 0.0250 0.0000 0.0000 0.0 0.0
C_28254 N_2177097602_3994b34 N_2177097603_305a338 15.0000 0.0250 0.0000 0.0000 0.0 0.0
C_28255 N_2177097603_305a338 N_2177097604_fa31d83 5.4000 0.0160 0.0000 0.0000 0.0 0.0
C_28256 N_2177097604_fa31d83 N_2177097605_441c25a 25.9000 0.0160 0.0000 0.0000 0.0 0.0
C_28257 N_2177097605_441c25a N_2177097606_1f16c40 30.0000 0.0250 0.0000 0.0000 0.0 0.0
C_28258 N_2177097606_1f16c40 N_2177097607_179b9d0 7.6000 0.0250 0.0000 0.0000 0.0 0.0
C_28259 N_2177097607_179b9d0 N_2177098504_f3c4310 40.8000 0.0160 0.0000 0.0000 0.0 0.0
C_28260 N_2177097701_ca3e241 N_2177097703_b9bd884 39.3000 0.0250 0.0000 0.0000 0.0 0.0
C_28261 N_2177097702_db28ef7 N_2177097701_ca3e241 19.6000 0.0250 0.0000 0.0000 0.0 0.0
C_28262 N_2177097703_b9bd884 N_2177097601_45f4958 29.8000 0.0250 0.0000 0.0000 0.0 0.0
C_28263 N_2177097704_d310f8a N_2177097702_db28ef7 30.1000 0.0250 0.0000 0.0000 0.0 0.0
C_28264 N_2177097801_4a9094c N_2177097802_b2b7aad 28.9000 0.0250 0.0000 0.0000 0.0 0.0
C_28265 N_2177097802_b2b7aad N_2177097803_6201663 29.9000 0.0250 0.0000 0.0000 0.0 0.0
C_28266 N_2177097803_6201663 N_2177097805_61a30ae 16.7000 0.0250 0.0000 0.0000 0.0 0.0
C_28267 N_2177097804_88b7025 N_2177097704_d310f8a 30.0000 0.0250 0.0000 0.0000 0.0 0.0
C_28268 N_2177097805_61a30ae N_2177097804_88b7025 13.4000 0.0250 0.0000 0.0000 0.0 0.0
C_28273 N_2177098401_743a569 N_2177097402_0bbb9be 30.4000 0.0250 0.0000 0.0000 0.0 0.0
C_28274 N_2177098402_0422a60 N_2177098401_743a569 14.4000 0.0250 0.0000 0.0000 0.0 0.0
C_28275 N_2177098403_8e5febd N_2177098402_0422a60 8.3000 0.0160 0.0000 0.0000 0.0 0.0
C_28276 N_2177098404_18f5fd9 N_2177098403_8e5febd 9.9000 0.0160 0.0000 0.0000 0.0 0.0
C_28277 N_2177098405_b5f0b96 N_2177098404_18f5fd9 3.1000 0.0160 0.0000 0.0000 0.0 0.0
C_28278 N_2177098406_4d04a70 N_2177098402_0422a60 39.2000 0.0250 0.0000 0.2220 0.0 0.0
C_28279 N_2177098407_54f3cf9 N_2177098406_4d04a70 25.0000 0.0250 0.0000 0.0000 0.0 0.0
C_28280 N_2177098501_c1ca854 N_2177098405_b5f0b96 7.1000 0.0160 0.0000 0.0000 0.0 0.0
C_28281 N_2177098502_71305d2 N_2177098501_c1ca854 17.3000 0.0250 0.0000 0.0000 0.0 0.0
C_28282 N_2177098503_b6210ba N_2177098502_71305d2 30.1000 0.0250 0.0000 0.0000 0.0 0.0
C_28283 N_2177098504_f3c4310 N_2177098506_6639874 11.6000 0.0160 0.0000 0.0000 0.0 0.0
C_28284 N_2177098505_cf9ba04 N_2177098503_b6210ba 7.8000 0.0250 0.0000 0.0000 0.0 0.0
C_28285 N_2177098506_6639874 N_2177098505_cf9ba04 22.1000 0.0250 0.0000 0.0000 0.0 0.0
C_28286 N_2177098507_1376bc9 N_2177098505_cf9ba04 35.4000 0.0250 0.0000 0.8120 0.0 0.0
C_28287 N_2177098508_10f7ca9 N_2177098507_1376bc9 8.5000 0.0250 0.0000 0.0000 0.0 0.0
C_28288 N_2177098509_9553f4d N_2177098508_10f7ca9 10.7000 0.0160 0.0000 0.0000 0.0 0.0
C_28289 N_2177098601_f209ea1 N_2177098509_9553f4d 12.6000 0.0250 0.0000 0.0000 0.0 0.0
C_28290 N_2177098602_8cf800b N_2177098601_f209ea1 31.6000 0.0250 0.0000 0.0000 0.0 0.0
C_28291 N_2177098603_55f7b34 N_2177098602_8cf800b 26.7000 0.0250 0.0000 0.0000 0.0 0.0
C_28292 N_2177098801_7357535 N_2177097805_61a30ae 37.6000 0.0250 0.0000 0.3800 0.0 0.0
C_28293 N_2177098802_2a31c7c N_2177098801_7357535 30.6000 0.0250 0.0000 0.0000 0.0 0.0
C_28294 N_2177098803_506dd33 N_2177098802_2a31c7c 30.3000 0.0250 0.0000 0.0000 0.0 0.0
C_28297 N_2177098902_7586844 N_2177098803_506dd33 21.2000 0.0250 0.0000 0.0000 0.0 0.0
C_28298 N_2177099401_398eaa8 N_2177098407_54f3cf9 30.1000 0.0250 0.0000 0.0000 0.0 0.0
C_28299 N_2177099402_40bad5a N_2177099401_398eaa8 29.9000 0.0250 0.0000 0.0000 0.0 0.0
C_28300 N_2177099403_3a480cb N_2177099402_40bad5a 30.0000 0.0250 0.0000 0.0000 0.0 0.0
C_28301 N_2177099404_5c3783b N_2177099403_3a480cb 30.5000 0.0250 0.0000 0.0000 0.0 0.0
C_28302 N_2177099601_cf267db N_2177098603_55f7b34 30.5000 0.0250 0.0000 0.0000 0.0 0.0
C_28303 N_2177099602_ee8845d N_2177099601_cf267db 29.6000 0.0250 0.0000 0.0000 0.0 0.0
C_28304 N_2177099603_f43a8c0 N_2177099602_ee8845d 30.2000 0.0250 0.0000 0.0000 0.0 0.0
C_28305 N_2177100301_bf71906 N_2177100302_044deef 17.3000 0.0250 0.0000 0.0000 0.0 0.0
C_28306 N_2177100302_044deef N_2177100303_e50a4e8 28.5000 0.0250 0.0000 0.0000 0.0 0.0
C_28307 N_2177100303_e50a4e8 N_2177100304_a0625ab 8.8000 0.0160 0.0330 0.0000 0.0 0.0
C_28308 N_2177100304_a0625ab N_2177100305_54b0b32 30.7000 0.0250 0.0000 0.0000 0.0 0.0
C_28309 N_2177100305_54b0b32 N_2177101201_e4cef8c 29.9000 0.0250 0.0000 0.0000 0.0 0.0
C_28310 N_2177100701_4f372f5 N_2176109705_986ab9b 29.7000 0.0250 0.0000 0.0000 0.0 0.0
C_28311 N_2177100702_51fee5a N_2177100701_4f372f5 30.2000 0.0250 0.0000 0.0000 0.0 0.0
C_28312 N_2177100703_f5aba82 N_2177100702_51fee5a 29.5000 0.0250 0.0000 0.0000 0.0 0.0
C_28313 N_2177100704_4948111 N_2177100703_f5aba82 28.0000 0.0250 0.0000 0.0000 0.0 0.0
C_28314 N_2177101201_e4cef8c N_2177101202_588d887 30.0000 0.0250 0.0000 0.0000 0.0 0.0
C_28315 N_2177101202_588d887 N_2177101203_bc9e3b7 30.0000 0.0250 0.0000 0.0000 0.0 0.0
C_28316 N_2177101203_bc9e3b7 N_2177101204_b5bfc3f 30.1000 0.0250 0.0000 0.0000 0.0 0.0
C_28317 N_2177101204_b5bfc3f N_2177102201_64f5a5d 29.8000 0.0250 0.0000 0.0000 0.0 0.0
C_28318 N_2177101701_3dc22d4 N_2177100704_4948111 30.0000 0.0250 0.0000 0.0000 0.0 0.0
C_28319 N_2177101702_b548e19 N_2177101701_3dc22d4 5.2000 0.0160 0.0000 0.0000 0.0 0.0
C_28320 N_2177101703_2922d9b N_2177101702_b548e19 13.5000 0.0160 0.0000 0.0000 0.0 0.0
C_28321 N_2177101704_dc7b6b9 N_2177101703_2922d9b 10.5000 0.0160 0.0000 0.0000 0.0 0.0
C_28322 N_2177101705_69e6794 N_2177101704_dc7b6b9 29.9000 0.0160 0.0000 0.0000 0.0 0.0
C_28323 N_2177102201_64f5a5d N_2177102202_29fef92 29.6000 0.0250 0.0000 0.0000 0.0 0.0
C_28324 N_2177102202_29fef92 N_2177102203_c56b30c 29.8000 0.0160 0.0000 0.0000 0.0 0.0
C_28325 N_2177102203_c56b30c N_2177102204_06572db 29.9000 0.0250 0.0000 0.0000 0.0 0.0
C_28326 N_2177102204_06572db N_2177103201_d0d6f6f 27.4000 0.0250 0.0000 0.0000 0.0 0.0
C_28327 N_2177102205_e243afd N_2177102203_c56b30c 34.7000 0.0160 0.0000 0.0000 0.0 0.0
C_28328 N_2177102301_49b63df N_2177102302_d3decd7 25.3000 0.0250 0.0000 0.0000 0.0 0.0
C_28329 N_2177102302_d3decd7 N_2177102303_e0afbda 26.5000 0.0250 0.0000 0.0000 0.0 0.0
C_28330 N_2177102303_e0afbda N_2177102304_062af8d 16.0000 0.0250 0.0000 0.0000 0.0 0.0
C_28331 N_2177102304_062af8d N_2177102205_e243afd 17.6000 0.0250 0.0000 0.0000 0.0 0.0
C_28332 N_2177102701_5782a76 N_2177101705_69e6794 30.0000 0.0160 0.0000 0.0000 0.0 0.0
C_28333 N_2177102702_0431eb1 N_2177102701_5782a76 30.0000 0.0160 0.0000 0.0000 0.0 0.0
C_28334 N_2177102703_df8c1a4 N_2177102702_0431eb1 13.1000 0.0160 0.0000 0.0000 0.0 0.0
C_28335 N_2177102704_678193c N_2177102703_df8c1a4 9.3000 0.0160 0.0000 0.0000 0.0 0.0
C_28336 N_2177103001_d0ee2df N_2177104001_865070c 29.9000 0.0250 0.0000 0.0000 0.0 0.0
C_28337 N_2177103101_d359f68 N_2177103102_eefbdb2 29.9000 0.0250 0.0000 0.0000 0.0 0.0
C_28338 N_2177103102_eefbdb2 N_2177103103_98e1c62 29.5000 0.0250 0.0000 0.0000 0.0 0.0
C_28339 N_2177103103_98e1c62 N_2177103104_2e38ea9 30.2000 0.0250 0.0000 0.0000 0.0 0.0
C_28340 N_2177103104_2e38ea9 N_2177103105_1e237b8 7.8000 0.0250 0.0000 0.0000 0.0 0.0
C_28341 N_2177103105_1e237b8 N_2177103106_f9c295e 11.8000 0.0160 0.0000 0.0000 0.0 0.0
C_28342 N_2177103106_f9c295e N_2177103001_d0ee2df 10.3000 0.0250 0.0000 0.0380 0.0 0.0
C_28343 N_2177103201_d0d6f6f N_2177103202_d0126be 9.5000 0.0250 0.0000 0.0000 0.0 0.0
C_28344 N_2177103202_d0126be N_2177103203_6c2cdbf 15.2000 0.0160 0.0000 0.0000 0.0 0.0
C_28345 N_2177103203_6c2cdbf N_2177103101_d359f68 8.3000 0.0250 0.0000 0.0470 0.0 0.0
C_28346 N_2177103301_3af0ab3 N_2177103302_421f424 50.8000 0.0250 0.0000 0.0000 0.0 0.0
C_28347 N_2177103301_6b45778 N_2177103302_16a3d7b 50.8000 0.0250 0.0000 0.0000 0.0 0.0
C_28348 N_2177103302_421f424 N_2177104301_01baeb0 50.9000 0.0250 0.0000 0.0000 0.0 0.0
C_28349 N_2177103302_16a3d7b N_2177104301_927681c 50.9000 0.0250 0.0000 0.0000 0.0 0.0
C_28350 N_2177104001_865070c N_2177104002_f394e26 17.6000 0.0250 0.0000 0.0000 0.0 0.0
C_28351 N_2177104002_f394e26 N_2177104003_96eae12 12.6000 0.0250 0.0000 0.0000 0.0 0.0
C_28352 N_2177104003_96eae12 N_2177104004_2b4a089 13.7000 0.0250 0.0000 0.0000 0.0 0.0
C_28353 N_2177104004_2b4a089 N_2177104006_697c07a 11.2000 0.0160 0.0000 0.0000 0.0 0.0
C_28354 N_2177104005_73d6174 N_2177104002_f394e26 34.2000 0.0250 0.0000 0.0000 0.0 0.0
C_28355 N_2177104006_697c07a N_2177104007_0cac3fc 4.9000 0.0250 0.0000 0.0240 0.0 0.0
C_28356 N_2177104007_0cac3fc N_2177104008_9607697 25.4000 0.0250 0.0000 0.0000 0.0 0.0
C_28357 N_2177104008_9607697 N_2177104009_f9f0a41 3.9000 0.0160 0.0000 0.0000 0.0 0.0
C_28358 N_2177104009_f9f0a41 N_2177104010_d034362 1.7000 0.0250 0.0000 0.0000 0.0 0.0
C_28359 N_2177104010_d034362 N_2177094905_fa3be18 24.7000 0.0250 0.0090 0.0000 0.0 0.0
C_28360 N_2177104011_415b676 N_2177104010_d034362 22.4000 0.0250 0.0000 0.0090 0.0 0.0
C_28361 N_2177104101_5163f0f N_2177104005_73d6174 30.0000 0.0160 0.0000 0.0000 0.0 0.0
C_28362 N_2177104102_66f6b16 N_2177104103_ef794f7 14.9000 0.0250 0.0000 0.0000 0.0 0.0
C_28363 N_2177104103_ef794f7 N_2177104101_5163f0f 29.2000 0.0250 0.0000 0.0000 0.0 0.0
C_28364 N_2177104104_8fe56ac N_2177104102_66f6b16 14.7000 0.0250 0.0000 0.0000 0.0 0.0
C_28365 N_2177104105_59ace02 N_2177104104_8fe56ac 29.4000 0.0250 0.0000 0.0000 0.0 0.0
C_28366 N_2177104201_b804865 N_2177104203_3a621e5 28.7000 0.0250 0.0000 0.0000 0.0 0.0
C_28367 N_2177104202_a6a80b4 N_2177104201_b804865 13.8000 0.0250 0.0000 0.0000 0.0 0.0
C_28368 N_2177104203_3a621e5 N_2177104105_59ace02 29.3000 0.0250 0.0000 0.0000 0.0 0.0
C_28369 N_2177104204_17ef033 N_2177104202_a6a80b4 14.9000 0.0250 0.0000 0.0000 0.0 0.0
C_28370 N_2177104205_6a03272 N_2177104204_17ef033 15.1000 0.0250 0.0000 0.0000 0.0 0.0
C_28371 N_2177104301_01baeb0 N_2177104302_4a92d66 42.9000 0.0250 0.0000 0.0000 0.0 0.0
C_28372 N_2177104301_927681c N_2177104302_6060aa5 42.9000 0.0250 0.0000 0.0000 0.0 0.0
C_28373 N_2177104302_4a92d66 N_2177105319_b675cdd 31.6000 0.0250 0.0000 0.0000 0.0 0.0
C_28374 N_2177104302_6060aa5 N_2177105319_aa16381 31.6000 0.0250 0.0000 0.0000 0.0 0.0
C_28375 N_2177105001_0e65e57 N_2177104011_415b676 6.7000 0.0160 0.0000 0.0000 0.0 0.0
C_28376 N_2177105002_2022399 N_2177094905_fa3be18 23.6000 0.0250 0.0000 0.0140 0.0 0.0
C_28377 N_2177105003_fe336ac N_2177105002_2022399 8.3000 0.0250 0.0000 0.0000 0.0 0.0
C_28378 N_2177105004_732a567 N_2177105003_fe336ac 7.7000 0.0160 0.0000 0.0000 0.0 0.0
C_28379 N_2177105005_b974b6b N_2177105004_732a567 12.0000 0.0250 0.0050 0.0000 0.0 0.0
C_28380 N_2177105005_b974b6b N_2177105001_0e65e57 16.8000 0.0250 0.0000 0.0000 0.0 0.0
C_28381 N_2177105006_dc340d2 N_2177105007_66bb009 7.0000 0.0160 0.0000 0.0000 0.0 0.0
C_28382 N_2177105006_77844e9 N_2177105007_1ad0859 7.0000 0.0160 0.2210 0.0000 0.0 0.0
C_28383 N_2177105007_66bb009 N_2177105008_f6ed605 6.2000 0.0160 0.0000 0.0000 0.0 0.0
C_28384 N_2177105007_1ad0859 N_2177105008_3b5938e 6.2000 0.0160 0.0000 0.0000 0.0 0.0
C_28385 N_2177105008_f6ed605 N_2177105009_87e9ea6 3.2000 0.0160 0.0000 0.0000 0.0 0.0
C_28386 N_2177105008_3b5938e N_2177105009_b8276a5 3.2000 0.0160 0.0000 0.0000 0.0 0.0
C_28387 N_2177105009_87e9ea6 N_2177105010_daea428 2.5000 0.0160 0.0000 0.0000 0.0 0.0
C_28388 N_2177105009_b8276a5 N_2177105010_cda34e3 2.5000 0.0160 0.0000 0.0000 0.0 0.0
C_28389 N_2177105010_daea428 N_2177105011_e0d499e 2.5000 0.0160 0.0000 0.0000 0.0 0.0
C_28390 N_2177105010_cda34e3 N_2177105011_60e722b 2.5000 0.0160 0.0000 0.0000 0.0 0.0
C_28391 N_2177105011_e0d499e N_2177105012_e807dce 5.1000 0.0160 0.0000 0.0000 0.0 0.0
C_28392 N_2177105011_60e722b N_2177105012_c533040 5.1000 0.0160 0.0000 0.0000 0.0 0.0
C_28393 N_2177105012_e807dce N_2177095901_2ede70d 9.3000 0.0160 0.0000 0.0000 0.0 0.0
C_28394 N_2177105012_c533040 N_2177095901_929e16c 9.3000 0.0160 0.0000 0.0000 0.0 0.0
C_28395 N_2177105013_05cfddb N_2177105014_3607d6f 30.0000 0.0250 0.0000 0.0000 0.0 0.0
C_28396 N_2177105013_0ffdb42 N_2177105014_10b16b1 30.0000 0.0250 0.0000 0.0000 0.0 0.0
C_28397 N_2177105014_3607d6f N_2177105015_31bcc6d 18.0000 0.0250 0.0000 0.0000 0.0 0.0
C_28398 N_2177105014_10b16b1 N_2177105015_e7d2107 18.0000 0.0250 0.0000 0.0000 0.0 0.0
C_28399 N_2177105015_31bcc6d N_2177105017_3f6656c 9.3000 0.0250 0.2400 0.0000 0.0 0.0
C_28400 N_2177105015_31bcc6d N_2177105016_1390709 9.0000 0.0250 0.0000 0.0000 0.0 0.0
C_28401 N_2177105015_e7d2107 N_2177105017_c14994f 9.3000 0.0250 0.0000 0.0000 0.0 0.0
C_28402 N_2177105015_e7d2107 N_2177105016_eb627b3 9.0000 0.0250 0.0000 0.0000 0.0 0.0
C_28403 N_2177105017_3f6656c N_2177105006_dc340d2 11.4000 0.0250 0.0000 0.0000 0.0 0.0
C_28404 N_2177105017_c14994f N_2177105006_77844e9 11.4000 0.0250 0.0000 0.0000 0.0 0.0
C_28405 N_2177105101_189b75e N_2177105102_afe4d00 30.0000 0.0250 0.0000 0.0000 0.0 0.0
C_28406 N_2177105101_d00aec1 N_2177105102_2d437b1 30.0000 0.0250 0.0000 0.0000 0.0 0.0
C_28407 N_2177105102_afe4d00 N_2177105103_cc0cbb9 30.1000 0.0250 0.0000 0.0000 0.0 0.0
C_28408 N_2177105102_2d437b1 N_2177105103_c299cd2 30.1000 0.0250 0.0000 0.0000 0.0 0.0
C_28409 N_2177105103_cc0cbb9 N_2177105013_05cfddb 29.9000 0.0250 0.0000 0.0000 0.0 0.0
C_28410 N_2177105103_c299cd2 N_2177105013_0ffdb42 29.9000 0.0250 0.0000 0.0000 0.0 0.0
C_28411 N_2177105201_784998e N_2177104205_6a03272 14.8000 0.0250 0.0000 0.0000 0.0 0.0
C_28412 N_2177105202_fc5799a N_2177105203_1346405 30.1000 0.0250 0.0000 0.0000 0.0 0.0
C_28413 N_2177105202_4c246d2 N_2177105203_6961cff 30.1000 0.0250 0.0000 0.0000 0.0 0.0
C_28414 N_2177105203_1346405 N_2177105101_189b75e 29.8000 0.0250 0.0000 0.0000 0.0 0.0
C_28415 N_2177105203_6961cff N_2177105101_d00aec1 29.8000 0.0250 0.0000 0.0000 0.0 0.0
C_28416 N_2177105204_37762f9 N_2177105202_fc5799a 30.1000 0.0250 0.0000 0.0000 0.0 0.0
C_28417 N_2177105204_a29f742 N_2177105202_4c246d2 30.1000 0.0250 0.0000 0.0000 0.0 0.0
C_28418 N_2177105301_fa4b72d N_2177105201_784998e 29.8000 0.0250 0.0000 0.0000 0.0 0.0
C_28419 N_2177105302_9606551 N_2177105301_fa4b72d 15.1000 0.0250 0.0000 0.0000 0.0 0.0
C_28420 N_2177105303_5722c89 N_2177105308_bf580f0 8.7000 0.0250 0.0000 0.0000 0.0 0.0
C_28421 N_2177105303_5eac646 N_2177105308_560e556 8.7000 0.0250 0.0000 0.0000 0.0 0.0
C_28422 N_2177105304_74e5de0 N_2177105320_e33d1d2 7.5000 0.0250 0.0000 0.0000 0.0 0.0
C_28423 N_2177105304_daf457a N_2177105320_b256615 7.5000 0.0250 0.0000 0.0000 0.0 0.0
C_28424 N_2177105305_a6749d7 N_2177105310_f731057 7.4000 0.0250 0.0000 0.0000 0.0 0.0
C_28425 N_2177105305_62fc696 N_2177105310_1d81521 7.4000 0.0250 0.0000 0.0000 0.0 0.0
C_28426 N_2177105306_c19f17e N_2177105305_a6749d7 8.1000 0.0250 0.0000 0.0000 0.0 0.0
C_28427 N_2177105306_5eb42fd N_2177105305_62fc696 8.1000 0.0250 0.0000 0.0000 0.0 0.0
C_28428 N_2177105307_608be71 N_2177105312_fdab565 9.9000 0.0250 0.0000 0.0000 0.0 0.0
C_28429 N_2177105307_04357ac N_2177105312_1b2d3f5 9.9000 0.0250 0.0000 0.0000 0.0 0.0
C_28430 N_2177105308_bf580f0 N_2177105307_608be71 6.7000 0.0250 0.0000 0.0000 0.0 0.0
C_28431 N_2177105308_560e556 N_2177105307_04357ac 6.7000 0.0250 0.0000 0.0000 0.0 0.0
C_28432 N_2177105309_1f856cb N_2177105304_74e5de0 7.6000 0.0250 0.0000 0.0000 0.0 0.0
C_28433 N_2177105309_825c8d2 N_2177105304_daf457a 7.6000 0.0250 0.0000 0.0000 0.0 0.0
C_28434 N_2177105310_f731057 N_2177105311_f7b1ad4 8.8000 0.0250 0.0000 0.0000 0.0 0.0
C_28435 N_2177105310_1d81521 N_2177105311_590b0ed 8.8000 0.0250 0.0000 0.0000 0.0 0.0
C_28436 N_2177105311_f7b1ad4 N_2177105313_e35f42b 3.5000 0.0160 0.0000 0.0000 0.0 0.0
C_28437 N_2177105311_590b0ed N_2177105313_63dbdb0 3.5000 0.0160 0.0000 0.0000 0.0 0.0
C_28438 N_2177105312_fdab565 N_2177105315_02bca36 11.4000 0.0250 0.0000 0.0000 0.0 0.0
C_28439 N_2177105312_1b2d3f5 N_2177105315_e969ec5 11.4000 0.0250 0.0000 0.0000 0.0 0.0
C_28440 N_2177105313_e35f42b N_2177105314_7d5a1ef 17.5000 0.0250 0.0000 0.0000 0.0 0.0
C_28441 N_2177105313_63dbdb0 N_2177105314_d18d106 17.5000 0.0250 0.0000 0.0000 0.0 0.0
C_28442 N_2177105314_7d5a1ef N_2177105204_37762f9 30.0000 0.0250 0.0000 0.0000 0.0 0.0
C_28443 N_2177105314_d18d106 N_2177105204_a29f742 30.0000 0.0250 0.0000 0.0000 0.0 0.0
C_28444 N_2177105315_02bca36 N_2177105310_f731057 18.0000 0.0250 0.0000 0.0000 0.0 0.0
C_28445 N_2177105315_e969ec5 N_2177105310_1d81521 18.0000 0.0250 0.0000 0.0000 0.0 0.0
C_28446 N_2177105316_60ae539 N_2177105315_02bca36 10.5000 0.0250 0.0000 0.0000 0.0 0.0
C_28447 N_2177105316_d8c0896 N_2177105315_e969ec5 10.5000 0.0250 0.0000 0.0000 0.0 0.0
C_28448 N_2177105317_c8dd3da N_2177105316_60ae539 30.6000 0.0250 0.0000 0.0000 0.0 0.0
C_28449 N_2177105317_133faba N_2177105316_d8c0896 30.6000 0.0250 0.0000 0.0000 0.0 0.0
C_28450 N_2177105318_8ac9a24 N_2177105317_c8dd3da 29.9000 0.0250 0.0000 0.0000 0.0 0.0
C_28451 N_2177105318_adc3bf9 N_2177105317_133faba 29.9000 0.0250 0.0000 0.0000 0.0 0.0
C_28452 N_2177105319_b675cdd N_2177105306_c19f17e 7.7000 0.0250 0.0000 0.0000 0.0 0.0
C_28453 N_2177105319_aa16381 N_2177105306_5eb42fd 7.7000 0.0250 0.0000 0.0000 0.0 0.0
C_28454 N_2177105320_e33d1d2 N_2177105303_5722c89 9.1000 0.0250 0.0000 0.0000 0.0 0.0
C_28455 N_2177105320_b256615 N_2177105303_5eac646 9.1000 0.0250 0.0000 0.0000 0.0 0.0
C_28456 N_2177105401_9959323 N_2177105309_1f856cb 12.7000 0.0250 0.0000 0.0000 0.0 0.0
C_28457 N_2177105401_3e9250e N_2177105309_825c8d2 12.7000 0.0250 0.0000 0.0000 0.0 0.0
C_28458 N_2177105402_653925d N_2177105401_9959323 14.7000 0.0250 0.0000 0.0000 0.0 0.0
C_28459 N_2177105402_46fc268 N_2177105401_3e9250e 14.7000 0.0250 0.0000 0.0000 0.0 0.0
C_28460 N_2177105403_71124f0 N_2177105402_653925d 11.1000 0.0250 0.0000 0.0000 0.0 0.0
C_28461 N_2177105403_e1828b8 N_2177105402_46fc268 11.1000 0.0250 0.0000 0.0000 0.0 0.0
C_28462 N_2177105404_175ba62 N_2177105403_71124f0 16.3000 0.0250 0.0000 0.0000 0.0 0.0
C_28463 N_2177105404_07ea1f5 N_2177105403_e1828b8 16.3000 0.0250 0.0000 0.0000 0.0 0.0
C_28464 N_2177105405_4c7af6f N_2177105404_175ba62 16.9000 0.0250 0.0000 0.0000 0.0 0.0
C_28465 N_2177105405_107ee05 N_2177105404_07ea1f5 16.9000 0.0250 0.0000 0.0000 0.0 0.0
C_28466 N_2177105406_61d8520 N_2177105405_4c7af6f 22.8000 0.0250 0.0000 0.0000 0.0 0.0
C_28467 N_2177105406_a1f8b19 N_2177105405_107ee05 22.8000 0.0250 0.0000 0.0000 0.0 0.0
C_28468 N_2177105407_2ff876f N_2177105408_c91f1df 1.8000 0.0250 0.0000 0.0000 0.0 0.0
C_28469 N_2177105407_2100cfe N_2177105408_44233f7 1.8000 0.0250 0.0000 0.0000 0.0 0.0
C_28470 N_2177105408_c91f1df N_2177105406_61d8520 16.9000 0.0250 0.0000 0.0000 0.0 0.0
C_28471 N_2177105408_44233f7 N_2177105406_a1f8b19 16.9000 0.0250 0.0000 0.0000 0.0 0.0
C_28472 N_2177105501_dac10ad N_2177105502_29f291d 22.6000 0.0250 0.0000 0.0000 0.0 0.0
C_28473 N_2177105501_143e2ba N_2177105502_8d780b9 22.6000 0.0250 0.0000 0.0000 0.0 0.0
C_28474 N_2177105502_29f291d N_2177105407_2ff876f 20.8000 0.0250 0.0000 0.0000 0.0 0.0
C_28475 N_2177105502_8d780b9 N_2177105407_2100cfe 20.8000 0.0250 0.0000 0.0000 0.0 0.0
C_28476 N_2177106401_06288cb N_2177105318_8ac9a24 28.2000 0.0250 0.0000 0.0000 0.0 0.0
C_28477 N_2177106401_1b31034 N_2177105318_adc3bf9 28.2000 0.0250 0.0000 0.0000 0.0 0.0
C_28478 N_2177106402_4377a0c N_2177106401_06288cb 28.7000 0.0250 0.0000 0.0000 0.0 0.0
C_28479 N_2177106402_2928282 N_2177106401_1b31034 28.7000 0.0250 0.0000 0.0000 0.0 0.0
C_28480 N_2177106403_90ee6b6 N_2177106402_4377a0c 29.9000 0.0250 0.0000 0.0000 0.0 0.0
C_28481 N_2177106403_b914a8f N_2177106402_2928282 29.9000 0.0250 0.0000 0.0000 0.0 0.0
C_28482 N_2177106404_6a5fd8d N_2177106403_90ee6b6 30.1000 0.0250 0.0000 0.0000 0.0 0.0
C_28483 N_2177106404_979f07d N_2177106403_b914a8f 30.1000 0.0250 0.0000 0.0000 0.0 0.0
C_28484 N_2177107401_0dc040f N_2177106404_6a5fd8d 30.0000 0.0250 0.0000 0.0000 0.0 0.0
C_28485 N_2177107401_560ab74 N_2177106404_979f07d 30.0000 0.0250 0.0000 0.0000 0.0 0.0
C_28486 N_2177107501_78eda4e N_2177107401_0dc040f 30.0000 0.0250 0.0000 0.0000 0.0 0.0
C_28487 N_2177107501_084c7eb N_2177107401_560ab74 30.0000 0.0250 0.0000 0.0000 0.0 0.0
C_28488 N_2177107502_85491ab N_2177107501_78eda4e 30.0000 0.0250 0.0000 0.0000 0.0 0.0
C_28489 N_2177107502_481478b N_2177107501_084c7eb 30.0000 0.0250 0.0000 0.0000 0.0 0.0
C_28490 N_2177107503_6f1097c N_2177107502_85491ab 30.1000 0.0250 0.0000 0.0000 0.0 0.0
C_28491 N_2177107503_46cc85a N_2177107502_481478b 30.1000 0.0250 0.0000 0.0000 0.0 0.0
C_28492 N_2177108501_6522ac3 N_2177107503_6f1097c 29.9000 0.0250 0.0000 0.0000 0.0 0.0
C_28493 N_2177108501_484de01 N_2177107503_46cc85a 29.9000 0.0250 0.0000 0.0000 0.0 0.0
C_28494 N_2177108502_cfac700 N_2177108501_6522ac3 29.8000 0.0250 0.0000 0.0000 0.0 0.0
C_28495 N_2177108502_cf265b6 N_2177108501_484de01 29.8000 0.0250 0.0000 0.0000 0.0 0.0
C_28496 N_2177108503_b6dfe75 N_2177108502_cfac700 30.3000 0.0250 0.0000 0.0000 0.0 0.0
C_28497 N_2177108503_c6955ac N_2177108502_cf265b6 30.3000 0.0250 0.0000 0.0000 0.0 0.0
C_28498 N_2177108601_91bc79c N_2177108503_b6dfe75 29.9000 0.0250 0.0000 0.0000 0.0 0.0
C_28499 N_2177108601_bdf56b5 N_2177108503_c6955ac 29.9000 0.0250 0.0000 0.0000 0.0 0.0
C_28500 N_2177108602_8f8b797 N_2177108601_91bc79c 30.0000 0.0250 0.0000 0.0000 0.0 0.0
C_28501 N_2177108602_8f85997 N_2177108601_bdf56b5 30.0000 0.0250 0.0000 0.0000 0.0 0.0
C_28502 N_2177109601_795ec84 N_2177108602_8f8b797 29.9000 0.0250 0.0000 0.0000 0.0 0.0
C_28503 N_2177109601_f8b6042 N_2177108602_8f85997 29.9000 0.0250 0.0000 0.0000 0.0 0.0
C_28504 N_2177109602_acf7944 N_2177109601_795ec84 30.1000 0.0250 0.0000 0.0000 0.0 0.0
C_28505 N_2177109602_21ddb0b N_2177109601_f8b6042 30.1000 0.0250 0.0000 0.0000 0.0 0.0
C_28506 N_2177109603_f68b372 N_2177109602_acf7944 29.9000 0.0250 0.0000 0.0000 0.0 0.0
C_28507 N_2177109603_3e36bc3 N_2177109602_21ddb0b 29.9000 0.0250 0.0000 0.0000 0.0 0.0
C_28508 N_2177109701_98998be N_2177109603_f68b372 30.0000 0.0250 0.0000 0.0000 0.0 0.0
C_28509 N_2177109701_6bc0e31 N_2177109603_3e36bc3 30.0000 0.0250 0.0000 0.0000 0.0 0.0
C_28510 N_2177109801_4aa1e1d N_2177109802_20b1c54 9.4000 0.0250 0.0000 0.0000 0.0 0.0
C_28511 N_2177109801_9cfdb77 N_2177109802_043ace6 9.4000 0.0250 0.0000 0.0000 0.0 0.0
C_28512 N_2177109802_20b1c54 N_2177109803_35414f8 39.2000 0.0250 0.0000 0.0000 0.0 0.0
C_28513 N_2177109802_043ace6 N_2177109803_69db630 39.2000 0.0250 0.0000 0.0000 0.0 0.0
C_28514 N_2177109803_35414f8 N_2177109804_0c7c96e 10.0000 0.0250 0.0000 0.0000 0.0 0.0
C_28515 N_2177109803_69db630 N_2177109804_c1b992e 10.0000 0.0250 0.0000 0.0000 0.0 0.0
C_28516 N_2177109804_0c7c96e N_2178100801_2738934 39.3000 0.0250 0.0000 0.0000 0.0 0.0
C_28517 N_2177109804_c1b992e N_2178100801_06d52a4 39.3000 0.0250 0.0000 0.0000 0.0 0.0
C_28518 N_2177109901_ccfc9d8 N_2177109902_263ab19 48.6000 0.0250 0.0000 0.0000 0.0 0.0
C_28519 N_2177109901_9a0c6ee N_2177109902_9540bb4 48.6000 0.0250 0.0000 0.0000 0.0 0.0
C_28520 N_2177109902_263ab19 N_2177109801_4aa1e1d 47.6000 0.0250 0.0000 0.0000 0.0 0.0
C_28521 N_2177109902_9540bb4 N_2177109801_9cfdb77 47.6000 0.0250 0.0000 0.0000 0.0 0.0
C_28522 N_2177110001_487c244 N_2176119003_60c6537 28.6000 0.0160 0.0000 0.0000 0.0 0.0
C_28523 N_2177110002_8991bd4 N_2176119003_60c6537 30.1000 0.0160 0.0000 0.0000 0.0 0.0
C_28524 N_2177110003_ab1158a N_2177110001_487c244 29.9000 0.0160 0.0000 0.0000 0.0 0.0
C_28525 N_2177110101_8e456f0 N_2177110003_ab1158a 30.2000 0.0160 0.0000 0.0000 0.0 0.0
C_28526 N_2177110102_cba2c39 N_2177110101_8e456f0 56.7000 0.0160 0.0000 0.0000 0.0 0.0
C_28528 N_2177110103_15f8928 N_2177110102_cba2c39 32.9000 0.0160 0.0000 0.0010 0.0 0.0
C_28529 N_2177110104_9b7fec1 N_2177110002_8991bd4 148.0000 0.0160 0.0000 0.0000 0.0 0.0
C_28531 N_2177110501_d9cae41 N_2176118503_c10c827 139.1000 0.0160 0.0000 0.0000 0.0 0.0
C_28532 N_2177110601_26a2074 N_2177110501_d9cae41 76.5000 0.0160 0.0000 0.0000 0.0 0.0
C_28533 N_2177110602_196f320 N_2177110601_26a2074 8.5000 0.0160 0.0000 0.0000 0.0 0.0
C_28534 N_2177111101_da0ab5a N_2177110104_9b7fec1 24.0000 0.0160 0.0000 0.0000 0.0 0.0
C_28535 N_2177111201_5cee703 N_2177110103_15f8928 30.2000 0.0160 0.0000 0.0000 0.0 0.0
C_28536 N_2177111202_77d0ffa N_2177111201_5cee703 30.1000 0.0160 0.0000 0.0000 0.0 0.0
C_28537 N_2177111203_32f891a N_2177111202_77d0ffa 30.0000 0.0160 0.0000 0.0000 0.0 0.0
C_28538 N_2177111301_28b5bbe N_2177111203_32f891a 29.8000 0.0160 0.0000 0.0000 0.0 0.0
C_28539 N_2177111302_b62ca2e N_2177111301_28b5bbe 30.0000 0.0160 0.0000 0.0000 0.0 0.0
C_28540 N_2177111303_d156d96 N_2177111302_b62ca2e 30.0000 0.0160 0.0000 0.0000 0.0 0.0
C_28541 N_2177111304_3f43d91 N_2177111303_d156d96 29.9000 0.0160 0.0000 0.0000 0.0 0.0
C_28542 N_2177112301_8f5980b N_2177111101_da0ab5a 240.9000 0.0160 0.0000 0.0000 0.0 0.0
C_28543 N_2177112401_ec76b77 N_2177111304_3f43d91 30.0000 0.0160 0.0000 0.0000 0.0 0.0
C_28544 N_2177112402_0fc4d73 N_2177112401_ec76b77 30.0000 0.0160 0.0000 0.0000 0.0 0.0
C_28545 N_2177112403_d000c72 N_2177112402_0fc4d73 29.4000 0.0160 0.0000 0.0000 0.0 0.0
C_28546 N_2177112404_f51fe0f N_2177112403_d000c72 29.9000 0.0160 0.0000 0.0000 0.0 0.0
C_28547 N_2177112405_4525323 N_2177112301_8f5980b 81.6000 0.0160 0.0000 0.0000 0.0 0.0
C_28548 N_2177112406_80e49e8 N_2177112404_f51fe0f 26.6000 0.0160 0.0000 0.0000 0.0 0.0
C_28549 N_2177112407_cdbb09c N_2177112405_4525323 22.1000 0.0160 0.0000 0.0000 0.0 0.0
C_28550 N_2177113401_e3af9c7 N_2177112406_80e49e8 33.7000 0.0160 0.0000 0.0000 0.0 0.0
C_28551 N_2177113402_8841e8d N_2177113401_e3af9c7 29.7000 0.0160 0.0000 0.0000 0.0 0.0
C_28552 N_2177113501_21709c6 N_2177112406_80e49e8 56.8000 0.0160 0.0000 0.0000 0.0 0.0
C_28553 N_2177113502_79332c5 N_2177113501_21709c6 53.5000 0.0160 0.0000 0.0000 0.0 0.0
C_28554 N_2177113503_d3f57ba N_2177113505_ef88051 29.4000 0.0250 0.0000 0.0000 0.0 0.0
C_28555 N_2177113504_1089c26 N_2177113503_d3f57ba 30.0000 0.0250 0.0000 0.0000 0.0 0.0
C_28556 N_2177113505_ef88051 N_2177113402_8841e8d 29.0000 0.0160 0.0000 0.0000 0.0 0.0
C_28557 N_2177113601_06d3a77 N_2177113502_79332c5 38.4000 0.0160 0.0000 0.0000 0.0 0.0
C_28558 N_2177113602_2bee81b N_2177110602_196f320 283.4000 0.0160 0.0000 0.0000 0.0 0.0
C_28559 N_2177113603_29e35d6 N_2177113504_1089c26 28.3000 0.0250 0.0000 0.0000 0.0 0.0
C_28560 N_2177113604_ac92ef2 N_2177113603_29e35d6 7.7000 0.0160 0.0000 0.0000 0.0 0.0
C_28561 N_2177113605_e4e81dd N_2177113604_ac92ef2 35.8000 0.0130 0.0000 0.6290 0.0 0.0
C_28562 N_2177113701_56aee60 N_2177113605_e4e81dd 53.3000 0.0130 0.0000 0.0000 0.0 0.0
C_28563 N_2177113702_06ae46b N_2177113602_2bee81b 137.9000 0.0160 0.0000 0.0000 0.0 0.0
C_28564 N_2177113703_9fb76ca N_2177113701_56aee60 65.2000 0.0130 0.0000 0.0000 0.0 0.0
C_28565 N_2177113801_c413eb2 N_2177113702_06ae46b 75.9000 0.0160 0.0000 0.0000 0.0 0.0
C_28566 N_2177113802_1f1efe6 N_2177113703_9fb76ca 61.4000 0.0130 0.0000 0.0000 0.0 0.0
C_28567 N_2177113803_64e8895 N_2177113801_c413eb2 67.9000 0.0160 0.0000 0.0000 0.0 0.0
C_28568 N_2177113804_f43206c N_2177113802_1f1efe6 60.2000 0.0130 0.0000 0.0000 0.0 0.0
C_28569 N_2177114501_331cf38 N_2177112407_cdbb09c 161.0000 0.0160 0.0000 0.0000 0.0 0.0
C_28570 N_2177114502_890ea1a N_2177113402_8841e8d 115.0000 0.0160 0.0000 0.0000 0.0 0.0
C_28571 N_2177114503_b318550 N_2177114501_331cf38 21.1000 0.0160 0.0000 0.0000 0.0 0.0
C_28572 N_2177115501_40f3c5e N_2177114502_890ea1a 133.2000 0.0160 0.0000 0.0000 0.0 0.0
C_28573 N_2177115501_40f3c5e N_2177115502_ba98043 23.1000 0.0160 0.0000 0.0000 0.0 0.0
C_28574 N_2177115502_ba98043 N_2177114503_b318550 133.2000 0.0160 0.0000 0.0000 0.0 0.0
C_28575 N_2177116201_7590b69 N_2177116202_553b735 76.0000 0.0250 0.0000 0.0000 0.0 0.0
C_28576 N_2177116201_7640219 N_2177116202_c504476 76.0000 0.0250 0.0000 0.0000 0.0 0.0
C_28577 N_2177116202_553b735 N_2177117101_b836f72 72.5000 0.0250 0.0000 0.0000 0.0 0.0
C_28578 N_2177116202_c504476 N_2177117101_aa1ba18 72.5000 0.0250 0.0000 0.0000 0.0 0.0
C_28579 N_2177116501_f2b1dae N_2177115501_40f3c5e 12.8000 0.0160 0.0000 0.0000 0.0 0.0
C_28580 N_2177116502_cbeb2e5 N_2177116501_f2b1dae 41.0000 0.0160 0.0000 0.0000 0.0 0.0
C_28582 N_2177116503_92549b7 N_2177115502_ba98043 50.5000 0.0160 0.0000 0.0000 0.0 0.0
C_28584 N_2177116701_85db9bd N_2177116502_cbeb2e5 119.3000 0.0160 0.0000 0.0000 0.0 0.0
C_28586 N_2177117101_b836f72 N_2177118101_8255d88 66.3000 0.0250 0.0000 0.0000 0.0 0.0
C_28587 N_2177117101_aa1ba18 N_2177118101_29f3300 66.3000 0.0250 0.0000 0.0000 0.0 0.0
C_28588 N_2177117801_c68e3f9 N_2177116701_85db9bd 115.6000 0.0160 0.0000 0.0000 0.0 0.0
C_28589 N_2177117802_b3e07d8 N_2177117801_c68e3f9 6.2000 0.0250 0.0000 0.0000 0.0 0.0
C_28591 N_2177117803_5761735 N_2177117802_b3e07d8 51.9000 0.0250 0.0000 0.0000 0.0 0.0
C_28592 N_2177117804_2a0382c N_2177117803_5761735 27.8000 0.0250 0.0000 0.0000 0.0 0.0
C_28593 N_2177118001_db3dbd7 N_2177119001_2c6d53a 68.9000 0.0250 0.0000 0.0000 0.0 0.0
C_28594 N_2177118001_4489c15 N_2177119001_d1369ef 68.9000 0.0250 0.0000 0.0000 0.0 0.0
C_28595 N_2177118101_8255d88 N_2177118001_db3dbd7 73.6000 0.0250 0.0000 0.0000 0.0 0.0
C_28596 N_2177118101_29f3300 N_2177118001_4489c15 73.6000 0.0250 0.0000 0.0000 0.0 0.0
C_28597 N_2177118801_0c938e6 N_2177117804_2a0382c 70.3000 0.0250 0.0000 0.0000 0.0 0.0
C_28598 N_2177119001_2c6d53a N_2177119002_f01a872 27.5000 0.0250 0.0000 0.0000 0.0 0.0
C_28599 N_2177119001_d1369ef N_2177119002_3315800 27.5000 0.0250 0.0000 0.0000 0.0 0.0
C_28600 N_2177119002_f01a872 N_2177109901_ccfc9d8 53.7000 0.0250 0.0000 0.0000 0.0 0.0
C_28601 N_2177119002_3315800 N_2177109901_9a0c6ee 53.7000 0.0250 0.0000 0.0000 0.0 0.0
C_28602 N_2177119801_3819d37 N_2177118801_0c938e6 129.7000 0.0250 0.0000 0.0000 0.0 0.0
C_28606 N_2177121801_3e99182 N_2177120801_2c22465 30.0000 0.0250 0.0000 0.0000 0.0 0.0
C_28607 N_2177121802_e5c6611 N_2177121801_3e99182 30.0000 0.0250 0.0000 0.0000 0.0 0.0
C_28608 N_2177121803_bc7f21f N_2177121802_e5c6611 59.8000 0.0250 0.0000 0.0000 0.0 0.0
C_28609 N_2177122801_f7b19e6 N_2177121803_bc7f21f 30.0000 0.0250 0.0000 0.0000 0.0 0.0
C_28610 N_2177122802_63e71c6 N_2177122801_f7b19e6 30.0000 0.0250 0.0000 0.0000 0.0 0.0
C_28611 N_2177122803_4664021 N_2177122802_63e71c6 30.0000 0.0250 0.0000 0.0000 0.0 0.0
C_28612 N_2177123801_e38b294 N_2177122803_4664021 30.0000 0.0250 0.0000 0.0000 0.0 0.0
C_28613 N_2177123802_0089e09 N_2177123801_e38b294 23.0000 0.0160 0.0000 0.0000 0.0 0.0
C_28614 N_2177123803_283168f N_2177123802_0089e09 17.5000 0.0160 0.0000 0.0000 0.0 0.0
C_28615 N_2177123901_a623641 N_2177123803_283168f 20.4000 0.0250 0.0000 0.0000 0.0 0.0
C_28616 N_2177123902_f47f037 N_2177123901_a623641 29.5000 0.0250 0.0000 0.0000 0.0 0.0
C_28617 N_2177123903_d28e1b8 N_2177123902_f47f037 28.8000 0.0250 0.0000 0.0000 0.0 0.0
C_28618 N_2177123904_8b9e84f N_2177123903_d28e1b8 29.1000 0.0250 0.0000 0.0000 0.0 0.0
C_28619 N_2177124901_6fb5aea N_2177123904_8b9e84f 36.0000 0.0250 0.0000 0.0000 0.0 0.0
C_28620 N_2177124902_26985fd N_2177124901_6fb5aea 18.1000 0.0250 0.0000 0.0000 0.0 0.0
C_28621 N_2177124903_283ff99 N_2177124902_26985fd 18.2000 0.0250 0.0000 0.0000 0.0 0.0
C_28622 N_2177124904_ede9354 N_2177124903_283ff99 34.4000 0.0250 0.0000 0.0000 0.0 0.0
C_28623 N_2177124905_b7f038a N_2177124904_ede9354 29.1000 0.0250 0.0000 0.0000 0.0 0.0
C_28624 N_2177129001_7bf2eb6 N_2178110902_f84244f 48.5000 0.0250 0.0000 0.0000 0.0 0.0
C_28625 N_2177129101_3fcd860 N_2177129001_7bf2eb6 86.0000 0.0250 0.0000 0.0000 0.0 0.0
C_28632 N_2177134001_f5ef8a0 N_2177134002_fcb274e 26.3000 0.0250 0.0000 0.0000 0.0 0.0
C_28633 N_2177134002_fcb274e N_2177124905_b7f038a 40.1000 0.0250 0.0000 0.0000 0.0 0.0
C_28634 N_2177134003_0757b35 N_2177134001_f5ef8a0 31.0000 0.0250 0.0000 0.0000 0.0 0.0
C_28635 N_2177135001_967e84c N_2177134003_0757b35 30.6000 0.0250 0.0000 0.0000 0.0 0.0
C_28636 N_2177135101_8cb6217 N_2177135001_967e84c 33.1000 0.0250 0.0000 0.0000 0.0 0.0
C_28637 N_2177135102_55d6568 N_2177135101_8cb6217 26.5000 0.0160 0.0000 0.0000 0.0 0.0
C_28638 N_2177135103_664b836 N_2177135102_55d6568 29.8000 0.0160 0.0000 0.0000 0.0 0.0
C_28639 N_2177135104_916b3a7 N_2177135103_664b836 30.7000 0.0250 0.0000 0.0000 0.0 0.0
C_28640 N_2177135201_0bfd5b9 N_2177135104_916b3a7 29.6000 0.0250 0.0000 0.0000 0.0 0.0
C_28641 N_2177135202_cf15861 N_2177135201_0bfd5b9 11.9000 0.0250 0.0000 0.0000 0.0 0.0
C_28642 N_2177136201_33cdfca N_2177135202_cf15861 16.9000 0.0250 0.0000 0.0000 0.0 0.0
C_28643 N_2177136202_59e8418 N_2177136201_33cdfca 17.2000 0.0250 0.0000 0.0000 0.0 0.0
C_28644 N_2177136203_8ee22bb N_2177136202_59e8418 13.8000 0.0250 0.0000 0.0000 0.0 0.0
C_28645 N_2177136204_fc17b5d N_2177136203_8ee22bb 13.4000 0.0250 0.0000 0.0000 0.0 0.0
C_28646 N_2177136205_14035fa N_2177136204_fc17b5d 16.3000 0.0250 0.0000 0.0000 0.0 0.0
C_28647 N_2177136206_e3ddd98 N_2177136205_14035fa 28.8000 0.0160 0.0000 0.0000 0.0 0.0
C_28648 N_2177136207_6f0ed07 N_2177136206_e3ddd98 5.2000 0.0160 0.0000 0.0000 0.0 0.0
C_28649 N_2177137201_e6e68ed N_2177136207_6f0ed07 25.7000 0.0250 0.0000 0.0000 0.0 0.0
C_28650 N_2177137202_30f53fb N_2177137201_e6e68ed 9.9000 0.0250 0.0000 0.0000 0.0 0.0
C_28651 N_2177137203_5527cfc N_2177137202_30f53fb 21.6000 0.0250 0.0000 0.0000 0.0 0.0
C_28652 N_2177137204_f320986 N_2177137203_5527cfc 18.4000 0.0250 0.0000 0.0000 0.0 0.0
C_28653 N_2177137205_e96fb60 N_2177137204_f320986 12.1000 0.0250 0.0000 0.0000 0.0 0.0
C_28654 N_2177137206_617a522 N_2177137205_e96fb60 24.9000 0.0250 0.0000 0.0000 0.0 0.0
C_28655 N_2177137207_9d0d3d7 N_2177137206_617a522 10.0000 0.0160 0.0000 0.0000 0.0 0.0
C_28656 N_2177137301_c73bbf2 N_2177137207_9d0d3d7 113.0000 0.0160 0.0000 0.4730 0.0 0.0
C_28657 N_2177138201_efc8c78 N_2177137207_9d0d3d7 28.1000 0.0160 0.0000 0.0000 0.0 0.0
C_28658 N_2177138202_c903e2e N_2177138201_efc8c78 29.4000 0.0250 0.0000 0.0000 0.0 0.0
C_28659 N_2177138203_a710e15 N_2177138202_c903e2e 30.4000 0.0250 0.0000 0.0000 0.0 0.0
C_28660 N_2177138204_969ebd9 N_2177138203_a710e15 12.9000 0.0250 0.0000 0.0000 0.0 0.0
C_28661 N_2177138205_aaad3b8 N_2177138204_969ebd9 8.5000 0.0250 0.0000 0.0000 0.0 0.0
C_28662 N_2177138206_59996b9 N_2177138205_aaad3b8 7.6000 0.0250 0.0000 0.0000 0.0 0.0
C_28663 N_2177138401_f68c5b7 N_2177137301_c73bbf2 108.4000 0.0160 0.0000 0.0000 0.0 0.0
C_28664 N_2177138501_c53b274 N_2177138401_f68c5b7 97.1000 0.0160 0.0000 0.0000 0.0 0.0
C_28665 N_2177138502_97fbf3e N_2177138503_64b8981 32.6000 0.0250 0.0000 0.0010 0.0 0.0
C_28666 N_2177138502_97fbf3e N_2177138501_c53b274 55.8000 0.0160 0.0030 0.0000 0.0 0.0
C_28667 N_2177138503_64b8981 N_2177139501_6115d5a 30.0000 0.0160 0.0000 0.0000 0.0 0.0
C_28668 N_2177138601_6c5a11a N_2177138502_97fbf3e 28.1000 0.0250 0.0000 0.4040 0.0 0.0
C_28669 N_2177138602_eed1e8e N_2177138601_6c5a11a 13.5000 0.0160 0.0000 0.0000 0.0 0.0
C_28670 N_2177138603_56ab098 N_2177138602_eed1e8e 6.2000 0.0160 0.0000 0.0000 0.0 0.0
C_28671 N_2177138604_9218a5c N_2177138603_56ab098 10.1000 0.0250 0.0000 0.0000 0.0 0.0
C_28676 N_2177139201_6916532 N_2177138206_59996b9 25.4000 0.0250 0.0000 0.0000 0.0 0.0
C_28677 N_2177139202_0983e53 N_2177139201_6916532 4.5000 0.0250 0.0000 0.0000 0.0 0.0
C_28678 N_2177139203_48f7b65 N_2177139202_0983e53 12.5000 0.0250 0.0000 0.0000 0.0 0.0
C_28679 N_2177139301_117144a N_2177139302_54ab09e 13.8000 0.0250 0.0000 0.0000 0.0 0.0
C_28680 N_2177139302_54ab09e N_2177139203_48f7b65 18.5000 0.0250 0.0000 0.0000 0.0 0.0
C_28681 N_2177139303_efded05 N_2177139301_117144a 17.6000 0.0250 0.0000 0.0000 0.0 0.0
C_28682 N_2177139304_d7f3097 N_2177139305_3901c37 16.0000 0.0250 0.0000 0.0000 0.0 0.0
C_28683 N_2177139305_3901c37 N_2177139303_efded05 17.2000 0.0250 0.0000 0.0000 0.0 0.0
C_28684 N_2177139306_df2019d N_2177139304_d7f3097 11.0000 0.0250 0.0000 0.0000 0.0 0.0
C_28685 N_2177139307_e20cdce N_2177139306_df2019d 18.4000 0.0250 0.0000 0.0000 0.0 0.0
C_28686 N_2177139401_0cf6f45 N_2177139307_e20cdce 29.6000 0.0250 0.0000 0.0000 0.0 0.0
C_28687 N_2177139402_629ce16 N_2177139401_0cf6f45 30.5000 0.0250 0.0000 0.0000 0.0 0.0
C_28688 N_2177139501_6115d5a N_2177139502_d65f90c 31.2000 0.0160 0.0000 0.0000 0.0 0.0
C_28689 N_2177139502_d65f90c N_2177139503_0ba7192 28.5000 0.0160 0.0000 0.0000 0.0 0.0
C_28690 N_2177139503_0ba7192 N_2177139510_1473ec8 26.3000 0.0160 0.0000 0.1970 0.0 0.0
C_28691 N_2177139504_0943469 N_2177139510_1473ec8 30.8000 0.0250 0.0000 0.1970 0.0 0.0
C_28692 N_2177139505_600901b N_2177139504_0943469 17.0000 0.0250 0.0000 0.0000 0.0 0.0
C_28693 N_2177139506_c89eb01 N_2177139509_5547ef4 8.6000 0.0250 0.0000 0.0000 0.0 0.0
C_28694 N_2177139507_d76ebd4 N_2177139505_600901b 11.7000 0.0250 0.0000 0.0000 0.0 0.0
C_28695 N_2177139508_9b614a8 N_2177139506_c89eb01 11.7000 0.0250 0.0000 0.0000 0.0 0.0
C_28696 N_2177139509_5547ef4 N_2177139507_d76ebd4 8.5000 0.0250 0.0000 0.0000 0.0 0.0
C_28697 N_2177139510_1473ec8 N_2178130402_e315915 30.1000 0.0160 0.0000 0.0000 0.0 0.0
C_28698 N_2177139511_53167c7 N_2177139508_9b614a8 15.7000 0.0160 0.0000 0.0000 0.0 0.0
C_28699 N_2177139601_b4829d2 N_2177138604_9218a5c 21.4000 0.0250 0.0000 0.0000 0.0 0.0
C_28700 N_2177139602_0d3d523 N_2177139604_0a2ab92 12.2000 0.0250 0.0000 0.0000 0.0 0.0
C_28701 N_2177139603_11e4afb N_2177139601_b4829d2 8.7000 0.0250 0.0000 0.0000 0.0 0.0
C_28702 N_2177139604_0a2ab92 N_2177139603_11e4afb 6.3000 0.0250 0.0000 0.0000 0.0 0.0
C_28703 N_2177139605_b1e88f5 N_2177139511_53167c7 5.4000 0.0160 0.0000 0.0000 0.0 0.0
C_28704 N_2177139701_5da39da N_2177139602_0d3d523 10.4000 0.0250 0.0000 0.0000 0.0 0.0
C_28705 N_2177139702_b98b552 N_2177139701_5da39da 8.6000 0.0250 0.0000 0.0000 0.0 0.0
C_28706 N_2177139703_68fe056 N_2177139702_b98b552 19.3000 0.0250 0.0000 0.0000 0.0 0.0
C_28707 N_2177139704_9d1567b N_2177139703_68fe056 17.5000 0.0250 0.0000 0.0000 0.0 0.0
C_28708 N_2177139705_6a8cd90 N_2177139704_9d1567b 12.8000 0.0250 0.0000 0.0000 0.0 0.0
C_28709 N_2177139706_6ca9f4d N_2177139705_6a8cd90 21.4000 0.0160 0.0000 0.0000 0.0 0.0
C_28710 N_2177139708_53e21dd N_2177139706_6ca9f4d 22.1000 0.0160 0.0000 0.0000 0.0 0.0
C_28817 N_2178050901_4aecf6b N_2177059904_16f036b 30.0000 0.0250 0.0000 0.0000 0.0 0.0
C_28818 N_2178050902_c2d14bf N_2178050901_4aecf6b 30.0000 0.0250 0.0000 0.0000 0.0 0.0
C_28906 N_2178060001_67fae07 N_2178050902_c2d14bf 30.0000 0.0250 0.0000 0.0000 0.0 0.0
C_28907 N_2178060002_77899b9 N_2178060001_67fae07 30.0000 0.0250 0.0000 0.0000 0.0 0.0
C_28908 N_2178060501_e394cd0 N_2177069604_ac7785d 29.3000 0.0250 0.0000 0.0000 0.0 0.0
C_28909 N_2178060502_e8688e2 N_2178060501_e394cd0 31.3000 0.0250 0.0000 0.0000 0.0 0.0
C_28910 N_2178060503_c589acb N_2178060502_e8688e2 27.4000 0.0250 0.0000 0.0000 0.0 0.0
C_28911 N_2178060504_5e2ece1 N_2178060503_c589acb 6.8000 0.0250 0.0000 0.0000 0.0 0.0
C_28912 N_2178060504_5e2ece1 N_2177069401_0f1934e 97.3000 0.0130 1.1210 0.0000 0.0 0.0
C_28913 N_2178060504_5e2ece1 N_2177069401_0f1934e 97.3000 0.0130 1.1210 0.0000 0.0 0.0
C_28914 N_2178060504_5e2ece1 N_2177069401_0f1934e 97.3000 0.0130 1.1210 0.0000 0.0 0.0
C_28915 N_2178060505_97be0bf N_2178060504_5e2ece1 22.2000 0.0160 0.0000 0.0000 0.0 0.0
C_28916 N_2178060506_7cefae9 N_2178060505_97be0bf 30.0000 0.0160 0.0000 0.0000 0.0 0.0
C_28917 N_2178060507_aae0f12 N_2178060506_7cefae9 19.4000 0.0160 0.0000 0.0000 0.0 0.0
C_28918 N_2178060701_bd43ca0 N_2178060802_0c6150d 29.9000 0.0250 0.0000 0.0000 0.0 0.0
C_28919 N_2178060702_f646f59 N_2178060701_bd43ca0 13.4000 0.0250 0.0000 0.0000 0.0 0.0
C_28920 N_2178060703_5919755 N_2178060702_f646f59 16.6000 0.0250 0.0000 0.0000 0.0 0.0
C_28921 N_2178060704_249c427 N_2178060703_5919755 15.5000 0.0250 0.0000 0.0000 0.0 0.0
C_28922 N_2178060801_df3786c N_2177069806_462c354 30.0000 0.0250 0.0000 0.0000 0.0 0.0
C_28923 N_2178060802_0c6150d N_2178060801_df3786c 30.0000 0.0250 0.0000 0.0000 0.0 0.0
C_28924 N_2178061001_b94ad43 N_2178060002_77899b9 30.0000 0.0250 0.0000 0.0000 0.0 0.0
C_28925 N_2178061002_8e08d21 N_2178061001_b94ad43 30.0000 0.0250 0.0000 0.0000 0.0 0.0
C_28926 N_2178061003_8c1596e N_2178061002_8e08d21 21.0000 0.0250 0.0000 0.0000 0.0 0.0
C_28927 N_2178061004_b581cdf N_2178061005_f4f0b4b 20.0000 0.0250 0.0000 0.0000 0.0 0.0
C_28928 N_2178061005_f4f0b4b N_2178061007_c20846f 9.7000 0.0250 0.0000 0.0000 0.0 0.0
C_28929 N_2178061006_90892a1 N_2178061003_8c1596e 25.5000 0.0160 0.0000 0.4400 0.0 0.0
C_28930 N_2178061007_c20846f N_2178061006_90892a1 3.5000 0.0250 0.0000 0.0000 0.0 0.0
C_28931 N_2178061101_cc9a0c9 N_2178061103_e485972 13.0000 0.0250 0.0000 0.0000 0.0 0.0
C_28932 N_2178061102_43afab6 N_2178061101_cc9a0c9 3.8000 0.0250 0.0000 0.0000 0.0 0.0
C_28933 N_2178061103_e485972 N_2178061004_b581cdf 10.0000 0.0250 0.0000 0.0000 0.0 0.0
C_28934 N_2178061104_cdf6e69 N_2178061102_43afab6 13.2000 0.0250 0.0000 0.0000 0.0 0.0
C_28935 N_2178061105_0d261c6 N_2178061104_cdf6e69 18.6000 0.0250 0.0000 0.0000 0.0 0.0
C_28936 N_2178061401_b6ce339 N_2178061501_7f1b715 29.9000 0.0250 0.0000 0.0000 0.0 0.0
C_28937 N_2178061402_5244c0e N_2178061401_b6ce339 14.6000 0.0250 0.0000 0.0000 0.0 0.0
C_28938 N_2178061403_b57ddc5 N_2178061402_5244c0e 20.4000 0.0160 0.0000 0.0000 0.0 0.0
C_28939 N_2178061404_1fce456 N_2178061403_b57ddc5 23.2000 0.0250 0.0000 0.0000 0.0 0.0
C_28940 N_2178061405_8740785 N_2178061404_1fce456 30.1000 0.0250 0.0000 0.0000 0.0 0.0
C_28941 N_2178061501_7f1b715 N_2178060507_aae0f12 10.5000 0.0250 0.0000 0.0000 0.0 0.0
C_28942 N_2178061701_fa9dd51 N_2178060704_249c427 13.9000 0.0250 0.0000 0.0000 0.0 0.0
C_28943 N_2178061702_c604d0f N_2178061701_fa9dd51 29.9000 0.0250 0.0000 0.0000 0.0 0.0
C_28944 N_2178061801_0845d74 N_2178061702_c604d0f 18.8000 0.0250 0.0000 0.0000 0.0 0.0
C_28945 N_2178061802_f3fd114 N_2178061801_0845d74 11.0000 0.0250 0.0000 0.0000 0.0 0.0
C_28946 N_2178061803_548614f N_2178061802_f3fd114 30.0000 0.0250 0.0000 0.0000 0.0 0.0
C_28947 N_2178062101_8fd5473 N_2178061105_0d261c6 11.4000 0.0160 0.0000 0.0000 0.0 0.0
C_28948 N_2178062102_0d42e6f N_2178062101_8fd5473 30.1000 0.0160 0.0000 0.0000 0.0 0.0
C_28949 N_2178062103_116bdb0 N_2178062102_0d42e6f 28.1000 0.0160 0.0000 0.0000 0.0 0.0
C_28950 N_2178062104_db09550 N_2178062103_116bdb0 4.9000 0.0160 0.0000 0.0000 0.0 0.0
C_28951 N_2178062105_434ea65 N_2178062104_db09550 10.9000 0.0250 0.0000 0.0000 0.0 0.0
C_28952 N_2178062106_1b2ac25 N_2178062105_434ea65 15.3000 0.0250 0.0000 0.0000 0.0 0.0
C_28953 N_2178062401_8ab14e6 N_2178061405_8740785 29.8000 0.0250 0.0000 0.0000 0.0 0.0
C_28954 N_2178062402_27b932f N_2178062401_8ab14e6 30.2000 0.0250 0.0000 0.0000 0.0 0.0
C_28955 N_2178062403_0915341 N_2178062402_27b932f 30.0000 0.0250 0.0000 0.0000 0.0 0.0
C_28956 N_2178062801_0ad115f N_2178061803_548614f 29.9000 0.0250 0.0000 0.0000 0.0 0.0
C_28957 N_2178062802_b2a3089 N_2178062801_0ad115f 4.5000 0.0250 0.0000 0.0000 0.0 0.0
C_28958 N_2178062803_e095bec N_2178062802_b2a3089 25.5000 0.0250 0.0000 0.0000 0.0 0.0
C_28959 N_2178062804_f56c712 N_2178062803_e095bec 29.8000 0.0250 0.0000 0.0000 0.0 0.0
C_28960 N_2178062805_e105b85 N_2178062804_f56c712 22.2000 0.0250 0.0000 0.0000 0.0 0.0
C_28961 N_2178062806_625954f N_2178062805_e105b85 7.6000 0.0160 0.0000 0.0000 0.0 0.0
C_28962 N_2178063101_cc68203 N_2178062106_1b2ac25 29.7000 0.0250 0.0000 0.0000 0.0 0.0
C_28963 N_2178063102_00cbc7b N_2178063101_cc68203 16.0000 0.0250 0.0000 0.0000 0.0 0.0
C_28964 N_2178063103_3c4a3b4 N_2178063102_00cbc7b 4.7000 0.0160 0.0000 0.0000 0.0 0.0
C_28965 N_2178063201_6157a0e N_2178063103_3c4a3b4 9.6000 0.0250 0.0000 0.0000 0.0 0.0
C_28966 N_2178063202_ab09453 N_2178063201_6157a0e 31.0000 0.0250 0.0000 0.0000 0.0 0.0
C_28967 N_2178063401_7c47769 N_2178062403_0915341 27.9000 0.0250 0.0000 0.0000 0.0 0.0
C_28968 N_2178063402_059775d N_2178063401_7c47769 16.1000 0.0250 0.0000 0.7500 0.0 0.0
C_28969 N_2178063403_51b2d90 N_2178063402_059775d 12.8000 0.0160 0.0000 0.0000 0.0 0.0
C_28970 N_2178063404_9b27eff N_2178063403_51b2d90 32.9000 0.0250 0.0000 0.0000 0.0 0.0
C_28971 N_2178063405_370f254 N_2178063404_9b27eff 4.3000 0.0250 0.0000 0.0000 0.0 0.0
C_28972 N_2178063801_6949905 N_2178062806_625954f 18.6000 0.0160 0.0000 0.0000 0.0 0.0
C_28973 N_2178063802_d8d5761 N_2178063801_6949905 11.2000 0.0250 0.0000 0.0180 0.0 0.0
C_28974 N_2178063803_5e34d96 N_2178063802_d8d5761 25.9000 0.0250 0.0000 0.0000 0.0 0.0
C_28975 N_2178063804_209eae8 N_2178063803_5e34d96 4.0000 0.0160 0.0000 0.0000 0.0 0.0
C_28976 N_2178063805_40349b5 N_2178063804_209eae8 15.7000 0.0250 0.0000 0.0000 0.0 0.0
C_28977 N_2178063806_f7c2e39 N_2178063805_40349b5 6.9000 0.0250 0.0000 0.0000 0.0 0.0
C_28978 N_2178063807_551565c N_2178063806_f7c2e39 8.9000 0.0160 0.0000 0.0000 0.0 0.0
C_28979 N_2178063901_94065db N_2178063807_551565c 4.0000 0.0250 0.0000 0.0000 0.0 0.0
C_28980 N_2178063902_f2f1429 N_2178063901_94065db 13.4000 0.0250 0.0000 0.0000 0.0 0.0
C_28981 N_2178063903_cdb117a N_2178063902_f2f1429 10.6000 0.0250 0.0000 0.0000 0.0 0.0
C_28982 N_2178064101_f8ab148 N_2178064207_36b74d4 30.0000 0.0160 0.0000 0.0000 0.0 0.0
C_28983 N_2178064201_8547914 N_2178063202_ab09453 37.0000 0.0250 0.0000 0.0000 0.0 0.0
C_28984 N_2178064202_ab1ca9a N_2178064201_8547914 20.8000 0.0250 0.0000 0.9000 0.0 0.0
C_28985 N_2178064203_a7df924 N_2178064202_ab1ca9a 30.0000 0.0250 0.0000 0.0000 0.0 0.0
C_28986 N_2178064204_999c7af N_2178064203_a7df924 25.6000 0.0160 0.0000 0.9000 0.0 0.0
C_28987 N_2178064205_459fa6c N_2178064204_999c7af 4.4000 0.0250 0.0000 0.0000 0.0 0.0
C_28988 N_2178064206_fc8b62f N_2178064205_459fa6c 2.6000 0.0250 0.0000 0.0000 0.0 0.0
C_28989 N_2178064207_36b74d4 N_2178064206_fc8b62f 15.3000 0.0250 0.0000 0.0000 0.0 0.0
C_28990 N_2178064401_b5adc3e N_2178063405_370f254 44.4000 0.0250 0.0000 0.0000 0.0 0.0
C_28991 N_2178064402_c124b45 N_2178064401_b5adc3e 11.3000 0.0250 0.0000 0.7500 0.0 0.0
C_28992 N_2178064403_58b5e96 N_2178064402_c124b45 4.8000 0.0160 0.0000 0.8000 0.0 0.0
C_28993 N_2178064404_6613274 N_2178064403_58b5e96 21.5000 0.0160 0.0000 0.0000 0.0 0.0
C_28994 N_2178064405_b67a57f N_2178064404_6613274 3.4000 0.0160 0.0000 0.0000 0.0 0.0
C_28996 N_2178064407_a7172ce N_2178064405_b67a57f 18.7000 0.0160 0.0000 0.0000 0.0 0.0
C_28997 N_2178064801_7493a9c N_2178064903_1675f0d 14.6000 0.0160 0.0000 0.0000 0.0 0.0
C_28998 N_2178064802_c7ec901 N_2178064801_7493a9c 7.6000 0.0250 0.0000 0.0000 0.0 0.0
C_28999 N_2178064901_017b3ff N_2178063903_cdb117a 30.0000 0.0250 0.0000 0.0000 0.0 0.0
C_29000 N_2178064902_e794c2a N_2178064901_017b3ff 30.0000 0.0250 0.0000 0.0000 0.0 0.0
C_29001 N_2178064903_1675f0d N_2178064902_e794c2a 13.0000 0.0250 0.0000 0.0000 0.0 0.0
C_29002 N_2178064904_6becb71 N_2178064802_c7ec901 16.8000 0.0250 0.0000 0.0000 0.0 0.0
C_29003 N_2178064905_a628cda N_2178064904_6becb71 7.8000 0.0250 0.0000 0.0000 0.0 0.0
C_29004 N_2178065101_12e0eb8 N_2178064101_f8ab148 11.7000 0.0160 0.0000 0.0000 0.0 0.0
C_29005 N_2178065102_05a6a6c N_2178065101_12e0eb8 30.0000 0.0160 0.0000 0.0000 0.0 0.0
C_29006 N_2178065103_6419c9f N_2178065102_05a6a6c 5.8000 0.0160 0.0000 0.0000 0.0 0.0
C_29007 N_2178065104_177dddf N_2178065103_6419c9f 24.2000 0.0160 0.0000 0.0000 0.0 0.0
C_29008 N_2178065105_e89195e N_2178065104_177dddf 14.2000 0.0160 0.0000 0.0000 0.0 0.0
C_29009 N_2178065106_f61152f N_2178065105_e89195e 22.5000 0.0250 0.0000 0.0000 0.0 0.0
C_29011 N_2178065801_4afd0ae N_2178065906_6db6ce8 22.0000 0.0250 0.0000 0.0000 0.0 0.0
C_29012 N_2178065802_2d2bd74 N_2178065801_4afd0ae 8.0000 0.0250 0.0000 0.0000 0.0 0.0
C_29013 N_2178065803_3d7e692 N_2178065802_2d2bd74 5.5000 0.0250 0.0000 0.0000 0.0 0.0
C_29014 N_2178065804_0c9e836 N_2178065803_3d7e692 11.3000 0.0160 0.0000 0.0000 0.0 0.0
C_29015 N_2178065805_ba7ce10 N_2178065804_0c9e836 13.2000 0.0250 0.0000 0.0000 0.0 0.0
C_29016 N_2178065806_b696b39 N_2178065805_ba7ce10 6.8000 0.0250 0.0000 0.0000 0.0 0.0
C_29017 N_2178065901_cda9622 N_2178064905_a628cda 18.4000 0.0250 0.0000 0.0000 0.0 0.0
C_29018 N_2178065902_f13365a N_2178065901_cda9622 11.6000 0.0250 0.0000 0.0000 0.0 0.0
C_29019 N_2178065903_aa16c0a N_2178065902_f13365a 30.0000 0.0250 0.0000 0.0000 0.0 0.0
C_29020 N_2178065904_e21d0b9 N_2178065903_aa16c0a 13.4000 0.0250 0.0000 0.0000 0.0 0.0
C_29021 N_2178065905_1bf7264 N_2178065904_e21d0b9 15.5000 0.0250 0.0000 0.0000 0.0 0.0
C_29022 N_2178065906_6db6ce8 N_2178065905_1bf7264 30.0000 0.0250 0.0000 0.0000 0.0 0.0
C_29023 N_2178066101_7bfd3e4 N_2178065106_f61152f 15.6000 0.0250 0.0000 0.9000 0.0 0.0
C_29024 N_2178066102_f92504e N_2178066101_7bfd3e4 6.7000 0.0250 0.0000 0.0000 0.0 0.0
C_29025 N_2178066103_5392eb8 N_2178066102_f92504e 29.0000 0.0250 0.0000 0.0000 0.0 0.0
C_29026 N_2178066104_9396ee2 N_2178066103_5392eb8 42.3000 0.0250 0.0000 0.0000 0.0 0.0
C_29028 N_2178066801_61d72f0 N_2178065806_b696b39 22.8000 0.0250 0.0000 0.0000 0.0 0.0
C_29029 N_2178066802_f286a54 N_2178066801_61d72f0 22.0000 0.0250 0.0000 0.0000 0.0 0.0
C_29031 N_2178067101_c78390b N_2178066104_9396ee2 59.0000 0.0250 0.0000 0.0000 0.0 0.0
C_29032 N_2178067501_9b6e573 N_2178067601_860c9d0 27.2000 0.0160 0.0000 0.0000 0.0 0.0
C_29034 N_2178067601_860c9d0 N_2178068701_6c28667 168.7000 0.0250 0.0000 0.0000 0.0 0.0
C_29036 N_2178067701_78e02b3 N_2178066802_f286a54 96.4000 0.0250 0.0000 0.0000 0.0 0.0
C_29037 N_2178067702_40e47b0 N_2178067701_78e02b3 67.1000 0.0160 0.0000 0.5000 0.0 0.0
C_29042 N_2178068701_6c28667 N_2178067702_40e47b0 21.0000 0.0160 0.0000 0.0000 0.0 0.0
C_29050 N_2178070401_c5fea1c N_2177079404_1a7a6ff 29.8000 0.0250 0.0000 0.0000 0.0 0.0
C_29051 N_2178070402_dfd95cf N_2178070403_198df75 6.1000 0.0160 0.0000 0.0000 0.0 0.0
C_29052 N_2178070403_198df75 N_2178070401_c5fea1c 29.8000 0.0250 0.0000 0.0000 0.0 0.0
C_29053 N_2178070404_03dea4f N_2178070402_dfd95cf 4.8000 0.0250 0.0000 0.0000 0.0 0.0
C_29054 N_2178070501_37882bd N_2178070404_03dea4f 18.9000 0.0250 0.0000 0.0000 0.0 0.0
C_29055 N_2178070502_26d73f0 N_2178070501_37882bd 16.3000 0.0250 0.0000 0.0000 0.0 0.0
C_29056 N_2178070503_3e7dc18 N_2178070502_26d73f0 13.5000 0.0250 0.0000 0.0000 0.0 0.0
C_29057 N_2178070504_982762e N_2178070503_3e7dc18 30.0000 0.0250 0.0000 0.0000 0.0 0.0
C_29058 N_2178070505_3139bed N_2178070504_982762e 30.0000 0.0250 0.0000 0.0000 0.0 0.0
C_29059 N_2178071501_32364c6 N_2178070505_3139bed 30.0000 0.0250 0.0000 0.0000 0.0 0.0
C_29060 N_2178071502_e140f1c N_2178071501_32364c6 30.0000 0.0250 0.0000 0.0000 0.0 0.0
C_29061 N_2178071503_2b0ff7e N_2178071502_e140f1c 12.7000 0.0250 0.0000 0.0000 0.0 0.0
C_29062 N_2178071601_1a64756 N_2178071503_2b0ff7e 17.3000 0.0250 0.0000 0.0000 0.0 0.0
C_29063 N_2178071602_6f47484 N_2178071601_1a64756 30.0000 0.0250 0.0000 0.0000 0.0 0.0
C_29064 N_2178071603_052c4c2 N_2178071602_6f47484 30.0000 0.0250 0.0000 0.0000 0.0 0.0
C_29065 N_2178072601_7eec607 N_2178071603_052c4c2 20.4000 0.0250 0.0000 0.0000 0.0 0.0
C_29066 N_2178072602_5a2aefc N_2178072601_7eec607 9.3000 0.0250 0.0000 0.0000 0.0 0.0
C_29067 N_2178072603_5342083 N_2178072602_5a2aefc 29.8000 0.0250 0.0000 0.0000 0.0 0.0
C_29068 N_2178072604_83f2fb6 N_2178072603_5342083 14.3000 0.0250 0.0000 0.0000 0.0 0.0
C_29069 N_2178072605_d00f175 N_2178072604_83f2fb6 15.7000 0.0250 0.0000 0.0000 0.0 0.0
C_29070 N_2178072606_d4740b5 N_2178072605_d00f175 4.8000 0.0250 0.0000 0.0000 0.0 0.0
C_29071 N_2178072701_b129d6c N_2178072606_d4740b5 24.4000 0.0250 0.0000 0.0000 0.0 0.0
C_29072 N_2178072702_bea2c08 N_2178072701_b129d6c 10.9000 0.0250 0.0000 0.0000 0.0 0.0
C_29073 N_2178072703_39a849f N_2178072702_bea2c08 19.0000 0.0250 0.0000 0.0000 0.0 0.0
C_29074 N_2178072704_a387853 N_2178072703_39a849f 30.0000 0.0250 0.0000 0.0000 0.0 0.0
C_29075 N_2178073701_c00b4fd N_2178072704_a387853 23.4000 0.0160 0.0000 0.0000 0.0 0.0
C_29076 N_2178073702_fbb6321 N_2178073801_96019fe 71.6000 0.0160 0.0000 0.0000 0.0 0.0
C_29077 N_2178073801_96019fe N_2178073701_c00b4fd 23.5000 0.0160 0.0000 0.0000 0.0 0.0
C_29078 N_2178074701_421b0de N_2178073702_fbb6321 25.6000 0.0160 0.0000 0.0000 0.0 0.0
C_29079 N_2178074702_b849dcc N_2178074701_421b0de 31.6000 0.0160 0.0000 0.0000 0.0 0.0
C_29080 N_2178074703_c29683a N_2178074702_b849dcc 43.9000 0.0160 0.0000 0.0000 0.0 0.0
C_29082 N_2178080701_08cdccb N_2177087501_256cef5 276.0000 0.0250 0.0000 0.0000 0.0 0.0
C_29085 N_2178081802_b93898f N_2178080701_08cdccb 244.8000 0.0250 0.0000 0.0000 0.0 0.0
C_29088 N_2178083901_d250cef N_2178081802_b93898f 157.2000 0.0250 0.0000 0.0000 0.0 0.0
C_29104 N_2178090301_964e924 N_2178090402_d33e63d 29.1000 0.0250 0.0000 0.0000 0.0 0.0
C_29105 N_2178090401_bff316c N_2178091401_2e1b624 7.0000 0.0160 0.0000 0.0000 0.0 0.0
C_29106 N_2178090401_a9f5f19 N_2177099404_5c3783b 29.5000 0.0250 0.0000 0.0000 0.0 0.0
C_29107 N_2178090402_d33e63d N_2178090401_a9f5f19 30.3000 0.0250 0.0000 0.0000 0.0 0.0
C_29108 N_2178090601_ced500e N_2177099603_f43a8c0 29.5000 0.0250 0.0000 0.0000 0.0 0.0
C_29109 N_2178090602_7bebcd1 N_2178090601_ced500e 29.8000 0.0250 0.0000 0.0000 0.0 0.0
C_29110 N_2178090603_8f6f659 N_2178090602_7bebcd1 30.0000 0.0250 0.0000 0.0000 0.0 0.0
C_29111 N_2178091301_1cdf7f0 N_2178090301_964e924 29.9000 0.0250 0.0000 0.0000 0.0 0.0
C_29112 N_2178091302_10760ce N_2178091301_1cdf7f0 29.9000 0.0250 0.0000 0.0000 0.0 0.0
C_29113 N_2178091303_98bed11 N_2178091302_10760ce 30.4000 0.0250 0.0000 0.0000 0.0 0.0
C_29114 N_2178091304_3da4072 N_2178091303_98bed11 29.8000 0.0250 0.0000 0.0000 0.0 0.0
C_29115 N_2178091401_2e1b624 N_2178091402_ddd4082 22.7000 0.0250 0.0000 0.0000 0.0 0.0
C_29116 N_2178091402_ddd4082 N_2178091403_9e5afe8 29.9000 0.0250 0.0000 0.0000 0.0 0.0
C_29117 N_2178091403_9e5afe8 N_2178091501_b18bfb9 30.1000 0.0250 0.0000 0.0000 0.0 0.0
C_29118 N_2178091501_b18bfb9 N_2178091502_97cbb1c 30.0000 0.0250 0.0000 0.0000 0.0 0.0
C_29119 N_2178091502_97cbb1c N_2178091503_3886881 29.8000 0.0250 0.0000 0.0000 0.0 0.0
C_29120 N_2178091503_3886881 N_2178092501_0d69b63 30.6000 0.0250 0.0000 0.0000 0.0 0.0
C_29121 N_2178091601_de37dd4 N_2178090603_8f6f659 30.0000 0.0250 0.0000 0.0000 0.0 0.0
C_29122 N_2178091602_5c6a729 N_2178091601_de37dd4 29.9000 0.0250 0.0000 0.0000 0.0 0.0
C_29123 N_2178091603_4f41d55 N_2178091602_5c6a729 30.1000 0.0250 0.0000 0.0000 0.0 0.0
C_29124 N_2178091604_840471a N_2178091603_4f41d55 30.0000 0.0250 0.0000 0.0000 0.0 0.0
C_29125 N_2178092301_3b7b057 N_2178091304_3da4072 30.1000 0.0250 0.0000 0.0000 0.0 0.0
C_29126 N_2178092302_0a01280 N_2178092301_3b7b057 29.7000 0.0250 0.0000 0.0000 0.0 0.0
C_29127 N_2178092303_e65b91d N_2178092302_0a01280 30.2000 0.0250 0.0000 0.0000 0.0 0.0
C_29128 N_2178092501_0d69b63 N_2178092601_1dbb587 29.7000 0.0250 0.0000 0.0000 0.0 0.0
C_29129 N_2178092601_1dbb587 N_2178092602_4494b8e 29.8000 0.0250 0.0000 0.0000 0.0 0.0
C_29130 N_2178092601_3ee32da N_2178091604_840471a 13.7000 0.0250 0.0000 0.0000 0.0 0.0
C_29131 N_2178092602_4494b8e N_2178092603_574fa98 11.4000 0.0250 0.0000 0.0000 0.0 0.0
C_29132 N_2178092602_a8f8b71 N_2178092601_3ee32da 7.1000 0.0160 0.0000 0.0000 0.0 0.0
C_29133 N_2178092603_574fa98 N_2178092604_8155009 48.6000 0.0160 0.0000 0.0000 0.0 0.0
C_29134 N_2178092603_8145c43 N_2178092602_a8f8b71 9.0000 0.0250 0.0000 0.0000 0.0 0.0
C_29135 N_2178092604_8155009 N_2178092701_eb996ff 32.7000 0.0250 0.0000 0.0000 0.0 0.0
C_29136 N_2178092701_eb996ff N_2178092702_321f9eb 4.7000 0.0250 0.0000 0.0000 0.0 0.0
C_29137 N_2178092702_321f9eb N_2178093701_6724a2e 9.7000 0.0160 0.0000 0.0000 0.0 0.0
C_29138 N_2178093001_c31c928 N_2178083901_d250cef 30.2000 0.0250 0.0000 0.0000 0.0 0.0
C_29139 N_2178093002_d850120 N_2178093001_c31c928 29.8000 0.0250 0.0000 0.0000 0.0 0.0
C_29140 N_2178093003_a4f2159 N_2178093002_d850120 30.2000 0.0250 0.0000 0.0000 0.0 0.0
C_29141 N_2178093004_c107145 N_2178093003_a4f2159 9.1000 0.0250 0.0000 0.0000 0.0 0.0
C_29142 N_2178093005_cb8b82c N_2178093004_c107145 18.1000 0.0250 0.0000 0.0000 0.0 0.0
C_29143 N_2178093006_d9cf80e N_2178093005_cb8b82c 31.6000 0.0250 0.0000 0.0000 0.0 0.0
C_29144 N_2178093007_b436a06 N_2178093006_d9cf80e 10.5000 0.0250 0.0000 0.0000 0.0 0.0
C_29145 N_2178093008_d080a52 N_2178093007_b436a06 24.1000 0.0250 0.0000 0.0000 0.0 0.0
C_29146 N_2178093301_97ce8dd N_2178092303_e65b91d 30.3000 0.0250 0.0000 0.0000 0.0 0.0
C_29147 N_2178093302_2f6ee37 N_2178093301_97ce8dd 29.7000 0.0250 0.0000 0.0000 0.0 0.0
C_29148 N_2178093303_a4002d9 N_2178093302_2f6ee37 30.4000 0.0250 0.0000 0.0000 0.0 0.0
C_29149 N_2178093304_cf85551 N_2178093303_a4002d9 29.6000 0.0250 0.0000 0.0000 0.0 0.0
C_29150 N_2178093601_5fb1741 N_2178093703_af941b3 30.1000 0.0250 0.0000 0.0000 0.0 0.0
C_29151 N_2178093701_6724a2e N_2178093702_6ca8b13 11.7000 0.0250 0.0000 0.0000 0.0 0.0
C_29152 N_2178093702_6ca8b13 N_2178093601_5fb1741 32.4000 0.0250 0.0000 0.0000 0.0 0.0
C_29153 N_2178093703_af941b3 N_2178093704_a83258e 29.6000 0.0250 0.0000 0.0000 0.0 0.0
C_29154 N_2178093704_a83258e N_2178093705_c15b324 30.2000 0.0250 0.0000 0.0000 0.0 0.0
C_29155 N_2178093705_c15b324 N_2178094701_5b75ceb 29.9000 0.0160 0.0000 0.0000 0.0 0.0
C_29157 N_2178094101_46a844f N_2178093008_d080a52 29.4000 0.0250 0.0000 0.0000 0.0 0.0
C_29158 N_2178094102_70c6ad2 N_2178094101_46a844f 34.8000 0.0250 0.0000 0.0000 0.0 0.0
C_29159 N_2178094103_a586fdb N_2178094102_70c6ad2 25.2000 0.0250 0.0000 0.0000 0.0 0.0
C_29160 N_2178094104_ae404ff N_2178094103_a586fdb 27.3000 0.0250 0.0000 0.0000 0.0 0.0
C_29161 N_2178094201_6745211 N_2178094301_903ee50 30.1000 0.0250 0.0000 0.0000 0.0 0.0
C_29162 N_2178094202_e364222 N_2178094201_6745211 29.7000 0.0250 0.0000 0.0000 0.0 0.0
C_29163 N_2178094203_6394d48 N_2178094104_ae404ff 32.7000 0.0250 0.0000 0.0000 0.0 0.0
C_29164 N_2178094204_2cf8f75 N_2178094203_6394d48 15.9000 0.0250 0.0000 0.0000 0.0 0.0
C_29165 N_2178094301_903ee50 N_2178093304_cf85551 30.1000 0.0250 0.0000 0.0000 0.0 0.0
C_29166 N_2178094701_5b75ceb N_2178094801_b410b6d 30.0000 0.0160 0.0000 0.0000 0.0 0.0
C_29167 N_2178094801_b410b6d N_2178094802_5152d0b 30.3000 0.0160 0.0000 0.0000 0.0 0.0
C_29168 N_2178094802_5152d0b N_2178094803_db82ef6 29.8000 0.0160 0.0000 0.0000 0.0 0.0
C_29169 N_2178094803_db82ef6 N_2178094804_007b467 30.0000 0.0160 0.0000 0.0000 0.0 0.0
C_29170 N_2178094804_007b467 N_2178094901_4a32f05 30.5000 0.0250 0.0000 0.0000 0.0 0.0
C_29171 N_2178094901_4a32f05 N_2178095901_d5047eb 30.7000 0.0250 0.0000 0.0000 0.0 0.0
C_29173 N_2178095201_61369f4 N_2178094204_2cf8f75 19.3000 0.0250 0.0000 0.0000 0.0 0.0
C_29174 N_2178095202_ba937f8 N_2178095201_61369f4 26.1000 0.0250 0.0230 0.0000 0.0 0.0
C_29175 N_2178095203_d91aa39 N_2178094202_e364222 35.3000 0.0250 0.0000 0.0000 0.0 0.0
C_29176 N_2178095204_6c283db N_2178095205_c306b16 11.3000 0.0250 0.0000 0.0000 0.0 0.0
C_29177 N_2178095205_c306b16 N_2178095203_d91aa39 4.7000 0.0250 0.0000 0.0000 0.0 0.0
C_29178 N_2178095206_720109a N_2178095202_ba937f8 57.0000 0.0160 0.0000 0.0000 0.0 0.0
C_29179 N_2178095901_d5047eb N_2178095902_9aff3eb 28.2000 0.0250 0.0000 0.0000 0.0 0.0
C_29180 N_2178095902_9aff3eb N_2178095903_c76a72c 17.3000 0.0160 0.0000 0.0000 0.0 0.0
C_29182 N_2178095903_c76a72c N_2178095904_2b321de 13.4000 0.0250 0.0000 0.0000 0.0 0.0
C_29183 N_2178095904_2b321de N_2178105001_ea0aef5 29.8000 0.0250 0.0000 0.0000 0.0 0.0
C_29185 N_2178096201_75201d3 N_2178095206_720109a 50.5000 0.0160 0.0000 0.0000 0.0 0.0
C_29186 N_2178096202_3ba82b7 N_2178096201_75201d3 51.0000 0.0160 0.0000 0.0000 0.0 0.0
C_29188 N_2178097101_721cb2a N_2178096202_3ba82b7 67.7000 0.0160 0.0000 0.0000 0.0 0.0
C_29189 N_2178097102_a49930e N_2178097101_721cb2a 53.9000 0.0160 0.0000 0.0000 0.0 0.0
C_29193 N_2178098101_738383f N_2178098102_e5dd26c 21.7000 0.0160 0.0000 0.0000 0.0 0.0
C_29194 N_2178098102_e5dd26c N_2178097102_a49930e 71.0000 0.0160 0.0000 0.0000 0.0 0.0
C_29195 N_2178098103_de826ad N_2178098101_738383f 26.4000 0.0160 0.0000 0.0000 0.0 0.0
C_29197 N_2178099001_045a5dd N_2178099101_7beecac 38.6000 0.0160 0.0000 0.0000 0.0 0.0
C_29198 N_2178099002_e5fdf11 N_2178099001_045a5dd 40.6000 0.0160 0.0000 0.0000 0.0 0.0
C_29199 N_2178099101_7beecac N_2178098103_de826ad 43.6000 0.0160 0.0000 0.0000 0.0 0.0
C_29203 N_2178100701_3294ddd N_2177109701_98998be 29.9000 0.0250 0.0000 0.0000 0.0 0.0
C_29204 N_2178100701_8adebb8 N_2177109701_6bc0e31 29.9000 0.0250 0.0000 0.0000 0.0 0.0
C_29205 N_2178100702_7d3fe59 N_2178100704_c4a3d10 39.0000 0.0250 0.0000 0.3780 0.0 0.0
C_29206 N_2178100702_f51151a N_2178100704_df577fd 39.0000 0.0250 0.0000 0.3780 0.0 0.0
C_29207 N_2178100703_587e960 N_2178100701_3294ddd 20.7000 0.0250 0.0000 0.0000 0.0 0.0
C_29208 N_2178100703_eda88eb N_2178100701_8adebb8 20.7000 0.0250 0.0000 0.0000 0.0 0.0
C_29209 N_2178100704_c4a3d10 N_2178100703_587e960 9.9000 0.0160 0.0000 0.0000 0.0 0.0
C_29210 N_2178100704_df577fd N_2178100703_eda88eb 9.9000 0.0160 0.0000 0.0000 0.0 0.0
C_29211 N_2178100705_cab75ce N_2178100704_c4a3d10 9.5000 0.0160 0.0000 0.3630 0.0 0.0
C_29212 N_2178100705_c02407d N_2178100704_df577fd 9.5000 0.0160 0.0000 0.3630 0.0 0.0
C_29213 N_2178100706_f73e5eb N_2178100707_62af741 29.9000 0.0160 0.0000 0.0000 0.0 0.0
C_29214 N_2178100706_c7d953c N_2178100707_b77dfe7 29.9000 0.0160 0.0000 0.0000 0.0 0.0
C_29215 N_2178100707_62af741 N_2178100708_d553cbb 8.8000 0.0160 0.0000 0.7170 0.0 0.0
C_29216 N_2178100707_b77dfe7 N_2178100708_0eb2976 8.8000 0.0160 0.0000 0.7170 0.0 0.0
C_29217 N_2178100708_d553cbb N_2178100705_cab75ce 10.7000 0.0250 0.0000 0.0000 0.0 0.0
C_29218 N_2178100708_0eb2976 N_2178100705_c02407d 10.7000 0.0250 0.0000 0.0000 0.0 0.0
C_29219 N_2178100709_58ad8a4 N_2178100708_d553cbb 29.8000 0.0250 0.0000 0.0000 0.0 0.0
C_29220 N_2178100709_a81b26d N_2178100708_0eb2976 29.8000 0.0250 0.0000 0.0000 0.0 0.0
C_29221 N_2178100801_2738934 N_2178100702_7d3fe59 41.1000 0.0250 0.0000 0.0000 0.0 0.0
C_29222 N_2178100801_06d52a4 N_2178100702_f51151a 41.1000 0.0250 0.0000 0.0000 0.0 0.0
C_29223 N_2178100802_d3fea7d N_2178100706_f73e5eb 30.0000 0.0160 0.0000 0.0000 0.0 0.0
C_29224 N_2178100802_274629a N_2178100706_c7d953c 30.0000 0.0160 0.0000 0.0000 0.0 0.0
C_29225 N_2178100803_a424f97 N_2178100804_b2800c9 29.9000 0.0160 0.0000 0.0000 0.0 0.0
C_29226 N_2178100803_92bdcce N_2178100804_f3b36e8 29.9000 0.0160 0.0000 0.0000 0.0 0.0
C_29227 N_2178100804_b2800c9 N_2178100802_d3fea7d 30.0000 0.0160 0.0000 0.0000 0.0 0.0
C_29228 N_2178100804_f3b36e8 N_2178100802_274629a 30.0000 0.0160 0.0000 0.0000 0.0 0.0
C_29229 N_2178100901_921cb2b N_2178100803_a424f97 30.0000 0.0160 0.0000 0.0000 0.0 0.0
C_29230 N_2178100901_926b13c N_2178100803_92bdcce 30.0000 0.0160 0.0000 0.0000 0.0 0.0
C_29231 N_2178100902_0380425 N_2178100901_921cb2b 29.8000 0.0160 0.0000 0.0000 0.0 0.0
C_29232 N_2178100902_8098d2d N_2178100901_926b13c 29.8000 0.0160 0.0000 0.0000 0.0 0.0
C_29233 N_2178100903_e9ddff4 N_2178100904_77910fe 30.0000 0.0160 0.0000 0.0000 0.0 0.0
C_29234 N_2178100903_82f8c0c N_2178100904_efd6812 30.0000 0.0160 0.0000 0.0000 0.0 0.0
C_29235 N_2178100904_77910fe N_2178100902_0380425 30.0000 0.0160 0.0000 0.0000 0.0 0.0
C_29236 N_2178100904_efd6812 N_2178100902_8098d2d 30.0000 0.0160 0.0000 0.0000 0.0 0.0
C_29239 N_2178101701_c5d3bb1 N_2178100709_58ad8a4 30.2000 0.0250 0.0000 0.0000 0.0 0.0
C_29240 N_2178101701_55e404f N_2178100709_a81b26d 30.2000 0.0250 0.0000 0.0000 0.0 0.0
C_29241 N_2178101801_3cc3a8f N_2178101701_c5d3bb1 29.8000 0.0250 0.0000 0.0000 0.0 0.0
C_29242 N_2178101801_c166fb4 N_2178101701_55e404f 29.8000 0.0250 0.0000 0.0000 0.0 0.0
C_29243 N_2178101802_e83e3c5 N_2178101801_3cc3a8f 29.9000 0.0250 0.0000 0.0000 0.0 0.0
C_29244 N_2178101802_3239ae1 N_2178101801_c166fb4 29.9000 0.0250 0.0000 0.0000 0.0 0.0
C_29245 N_2178101803_8a3c00c N_2178101802_e83e3c5 30.1000 0.0250 0.0000 0.0000 0.0 0.0
C_29246 N_2178101803_7679e6e N_2178101802_3239ae1 30.1000 0.0250 0.0000 0.0000 0.0 0.0
C_29247 N_2178101804_8726200 N_2178101803_8a3c00c 30.3000 0.0250 0.0000 0.0000 0.0 0.0
C_29248 N_2178101804_155c727 N_2178101803_7679e6e 30.3000 0.0250 0.0000 0.0000 0.0 0.0
C_29251 N_2178102801_303d5c1 N_2178101804_8726200 29.6000 0.0250 0.0000 0.0000 0.0 0.0
C_29252 N_2178102801_07c562e N_2178101804_155c727 29.6000 0.0250 0.0000 0.0000 0.0 0.0
C_29253 N_2178102901_735daf4 N_2178102801_303d5c1 30.1000 0.0250 0.0000 0.0000 0.0 0.0
C_29254 N_2178102901_b4a2b4d N_2178102801_07c562e 30.1000 0.0250 0.0000 0.0000 0.0 0.0
C_29255 N_2178102902_1dabbba N_2178102903_627eb88 30.1000 0.0250 0.0000 0.0000 0.0 0.0
C_29256 N_2178102902_2d8f119 N_2178102903_ebd2f0c 30.1000 0.0250 0.0000 0.0000 0.0 0.0
C_29257 N_2178102903_627eb88 N_2178102904_540b5c8 28.6000 0.0250 0.0000 0.0000 0.0 0.0
C_29258 N_2178102903_ebd2f0c N_2178102904_38a0d0b 28.6000 0.0250 0.0000 0.0000 0.0 0.0
C_29259 N_2178102904_540b5c8 N_2178102901_735daf4 27.0000 0.0250 0.0000 0.0000 0.0 0.0
C_29260 N_2178102904_38a0d0b N_2178102901_b4a2b4d 27.0000 0.0250 0.0000 0.0000 0.0 0.0
C_29265 N_2178105001_ea0aef5 N_2178105002_98f23dd 15.1000 0.0250 0.0000 0.0000 0.0 0.0
C_29266 N_2178105002_98f23dd N_2178105003_eeb4712 15.8000 0.0250 0.0000 0.0000 0.0 0.0
C_29267 N_2178105003_eeb4712 N_2178106001_9489402 27.3000 0.0250 0.0000 0.0000 0.0 0.0
C_29274 N_2178106001_9489402 N_2178106002_623bab9 33.3000 0.0250 0.0000 0.0000 0.0 0.0
C_29275 N_2178106002_623bab9 N_2178106003_6f0a398 21.0000 0.0250 0.0000 0.0000 0.0 0.0
C_29276 N_2178106003_6f0a398 N_2178106005_5ef5346 13.2000 0.0250 0.0000 0.0000 0.0 0.0
C_29278 N_2178106005_5ef5346 N_2178106006_eed1492 23.1000 0.0250 0.0110 0.0000 0.0 0.0
C_29279 N_2178106006_eed1492 N_2178107101_e67eda4 30.8000 0.0250 0.0000 0.0000 0.0 0.0
C_29301 N_2178107101_e67eda4 N_2178107102_45a149e 30.8000 0.0250 0.0000 0.0000 0.0 0.0
C_29302 N_2178107102_45a149e N_2178107103_cde38b0 32.1000 0.0250 0.0000 0.0000 0.0 0.0
C_29303 N_2178107103_cde38b0 N_2178108101_7c5f7c6 30.1000 0.0250 0.0000 0.0000 0.0 0.0
C_29318 N_2178108101_7c5f7c6 N_2178108102_9c593ad 29.1000 0.0250 0.0000 0.0000 0.0 0.0
C_29319 N_2178108102_9c593ad N_2178108103_20d931a 17.8000 0.0250 0.0000 0.0000 0.0 0.0
C_29320 N_2178108103_20d931a N_2178108104_42e08d5 38.0000 0.0250 0.0000 0.0000 0.0 0.0
C_29321 N_2178108104_42e08d5 N_2178109001_e1cdea4 41.0000 0.0250 0.0000 0.0000 0.0 0.0
C_29340 N_2178109001_e1cdea4 N_2178109002_fe76106 31.7000 0.0250 0.0000 0.0000 0.0 0.0
C_29341 N_2178109002_fe76106 N_2178109101_8ea74a8 28.4000 0.0250 0.0000 0.0000 0.0 0.0
C_29342 N_2178109101_8ea74a8 N_2178109102_e06be52 7.9000 0.0250 0.0000 0.0000 0.0 0.0
C_29343 N_2178109102_e06be52 N_2179100101_6b11e08 25.1000 0.0250 0.0000 0.0000 0.0 0.0
C_29346 N_2178110001_8dd16bb N_2178100903_e9ddff4 29.6000 0.0160 0.0000 0.0000 0.0 0.0
C_29347 N_2178110001_98124db N_2178100903_82f8c0c 29.6000 0.0160 0.0000 0.0000 0.0 0.0
C_29348 N_2178110002_f67c78d N_2178110001_8dd16bb 29.2000 0.0160 0.0000 0.0000 0.0 0.0
C_29349 N_2178110002_71f8340 N_2178110001_98124db 29.2000 0.0160 0.0000 0.0000 0.0 0.0
C_29350 N_2178110003_8368c0d N_2178110002_f67c78d 30.0000 0.0160 0.0000 0.0000 0.0 0.0
C_29351 N_2178110003_56d63da N_2178110002_71f8340 30.0000 0.0160 0.0000 0.0000 0.0 0.0
C_29352 N_2178110101_8ebbb5c N_2178110102_b4d724c 30.0000 0.0160 0.0000 0.0000 0.0 0.0
C_29353 N_2178110101_0f6ed1c N_2178110102_4b0291a 30.0000 0.0160 0.0000 0.0000 0.0 0.0
C_29354 N_2178110102_b4d724c N_2178110103_a4034f5 29.0000 0.0160 0.0000 0.0000 0.0 0.0
C_29355 N_2178110102_4b0291a N_2178110103_1e42068 29.0000 0.0160 0.0000 0.0000 0.0 0.0
C_29356 N_2178110103_a4034f5 N_2178110104_13c0bf3 24.2000 0.0160 0.0000 0.0000 0.0 0.0
C_29357 N_2178110103_1e42068 N_2178110104_84c42e1 24.2000 0.0160 0.0000 0.0000 0.0 0.0
C_29358 N_2178110104_13c0bf3 N_2178110105_c645b76 16.3000 0.0160 0.0000 0.0000 0.0 0.0
C_29359 N_2178110104_84c42e1 N_2178110105_e68d44f 16.3000 0.0160 0.0000 0.0000 0.0 0.0
C_29360 N_2178110105_c645b76 N_2178110003_8368c0d 19.4000 0.0160 0.0000 0.0000 0.0 0.0
C_29361 N_2178110105_e68d44f N_2178110003_56d63da 19.4000 0.0160 0.0000 0.0000 0.0 0.0
C_29362 N_2178110201_66e9365 N_2178110202_1027f63 31.1000 0.0160 0.0000 0.0000 0.0 0.0
C_29363 N_2178110201_4c67b6a N_2178110202_502912b 31.1000 0.0160 0.0000 0.0000 0.0 0.0
C_29364 N_2178110202_1027f63 N_2178110204_d7e975b 29.8000 0.0160 0.0000 0.0000 0.0 0.0
C_29365 N_2178110202_502912b N_2178110204_54d0a29 29.8000 0.0160 0.0000 0.0000 0.0 0.0
C_29366 N_2178110203_0b13830 N_2178110101_8ebbb5c 29.0000 0.0160 0.0000 0.0000 0.0 0.0
C_29367 N_2178110203_62bf6c1 N_2178110101_0f6ed1c 29.0000 0.0160 0.0000 0.0000 0.0 0.0
C_29368 N_2178110204_d7e975b N_2178110203_0b13830 34.7000 0.0160 0.0000 0.0000 0.0 0.0
C_29369 N_2178110204_54d0a29 N_2178110203_62bf6c1 34.7000 0.0160 0.0000 0.0000 0.0 0.0
C_29370 N_2178110301_9878ac0 N_2178110201_66e9365 37.2000 0.0160 0.0000 0.0200 0.0 0.0
C_29371 N_2178110301_c1d0398 N_2178110201_4c67b6a 37.2000 0.0160 0.0000 0.0200 0.0 0.0
C_29372 N_2178110302_268540e N_2178110301_9878ac0 31.2000 0.0160 0.0000 0.0000 0.0 0.0
C_29373 N_2178110302_6a6ecca N_2178110301_c1d0398 31.2000 0.0160 0.0000 0.0000 0.0 0.0
C_29374 N_2178110303_ab41279 N_2178110302_268540e 31.7000 0.0160 0.0000 0.0000 0.0 0.0
C_29375 N_2178110303_84f3270 N_2178110302_6a6ecca 31.7000 0.0160 0.0000 0.0000 0.0 0.0
C_29376 N_2178110304_b22c41c N_2178111302_ab99daa 56.2000 0.0250 0.0000 0.0000 0.0 0.0
C_29377 N_2178110304_30f2f8c N_2178111302_d336952 56.2000 0.0250 0.0000 0.0000 0.0 0.0
C_29378 N_2178110401_ea8cf66 N_2178110303_ab41279 29.8000 0.0160 0.0000 0.0320 0.0 0.0
C_29379 N_2178110401_35302c8 N_2178110303_84f3270 29.8000 0.0160 0.0000 0.0320 0.0 0.0
C_29380 N_2178110402_b671ef1 N_2178110401_ea8cf66 30.0000 0.0160 0.0000 0.0000 0.0 0.0
C_29381 N_2178110402_2c52105 N_2178110401_35302c8 30.0000 0.0160 0.0000 0.0000 0.0 0.0
C_29382 N_2178110403_2127a2a N_2178110402_b671ef1 30.0000 0.0160 0.0000 0.0000 0.0 0.0
C_29383 N_2178110403_067c9f4 N_2178110402_2c52105 30.0000 0.0160 0.0000 0.0000 0.0 0.0
C_29384 N_2178110501_bcda39c N_2178110403_2127a2a 28.8000 0.0160 0.0000 0.0000 0.0 0.0
C_29385 N_2178110501_018f3b7 N_2178110403_067c9f4 28.8000 0.0160 0.0000 0.0000 0.0 0.0
C_29386 N_2178110502_286f4da N_2178110501_bcda39c 29.8000 0.0160 0.0620 0.0000 0.0 0.0
C_29387 N_2178110502_bd591ad N_2178110501_018f3b7 29.8000 0.0160 0.0620 0.0000 0.0 0.0
C_29388 N_2178110801_0007b78 N_2177119801_3819d37 39.7000 0.0250 0.0000 0.0000 0.0 0.0
C_29389 N_2178110901_a5f4a78 N_2178110801_0007b78 39.9000 0.0250 0.0000 0.0000 0.0 0.0
C_29390 N_2178110902_f84244f N_2178110903_5d51aef 40.8000 0.0250 0.0000 0.0000 0.0 0.0
C_29391 N_2178110903_5d51aef N_2178110901_a5f4a78 46.0000 0.0250 0.0000 0.0000 0.0 0.0
C_29392 N_2178111101_9754879 N_2178111103_705c8be 27.3000 0.0250 0.0000 0.0000 0.0 0.0
C_29393 N_2178111101_39f4a99 N_2178111103_fc85f10 27.3000 0.0250 0.0000 0.0000 0.0 0.0
C_29394 N_2178111102_2926ba7 N_2178111101_9754879 12.4000 0.0250 0.0000 0.0000 0.0 0.0
C_29395 N_2178111102_41b0d2e N_2178111101_39f4a99 12.4000 0.0250 0.0000 0.0000 0.0 0.0
C_29396 N_2178111103_705c8be N_2178112102_80bb997 21.9000 0.0250 0.0000 0.0000 0.0 0.0
C_29397 N_2178111103_fc85f10 N_2178112102_4fc5cf5 21.9000 0.0250 0.0000 0.0000 0.0 0.0
C_29398 N_2178111201_cd67640 N_2178111102_2926ba7 45.8000 0.0250 0.0000 0.0000 0.0 0.0
C_29399 N_2178111201_46b7df5 N_2178111102_41b0d2e 45.8000 0.0250 0.0000 0.0000 0.0 0.0
C_29400 N_2178111301_1671a84 N_2178110304_b22c41c 76.2000 0.0250 0.0000 0.0000 0.0 0.0
C_29401 N_2178111301_aede517 N_2178110304_30f2f8c 76.2000 0.0250 0.0000 0.0000 0.0 0.0
C_29402 N_2178111302_ab99daa N_2178111303_296406d 16.2000 0.0250 0.0000 0.0000 0.0 0.0
C_29403 N_2178111302_d336952 N_2178111303_d89c791 16.2000 0.0250 0.0000 0.0000 0.0 0.0
C_29404 N_2178111303_296406d N_2178111201_cd67640 89.9000 0.0250 0.0000 0.0000 0.0 0.0
C_29405 N_2178111303_d89c791 N_2178111201_46b7df5 89.9000 0.0250 0.0000 0.0000 0.0 0.0
C_29406 N_2178111501_ebbe991 N_2178110502_286f4da 30.0000 0.0160 0.0000 0.0000 0.0 0.0
C_29407 N_2178111501_980022c N_2178110502_bd591ad 30.0000 0.0160 0.0000 0.0000 0.0 0.0
C_29408 N_2178111502_129332a N_2178111501_ebbe991 30.1000 0.0160 0.0000 0.0000 0.0 0.0
C_29409 N_2178111502_696923d N_2178111501_980022c 30.1000 0.0160 0.0000 0.0000 0.0 0.0
C_29410 N_2178111503_4fa8bfa N_2178111502_129332a 29.9000 0.0160 0.0000 0.0000 0.0 0.0
C_29411 N_2178111503_7416d92 N_2178111502_696923d 29.9000 0.0160 0.0000 0.0000 0.0 0.0
C_29412 N_2178111504_db45834 N_2178111503_4fa8bfa 30.0000 0.0250 0.0000 0.0000 0.0 0.0
C_29413 N_2178111504_904363b N_2178111503_7416d92 30.0000 0.0250 0.0000 0.0000 0.0 0.0
C_29414 N_2178112001_374f33a N_2178112002_d735985 30.8000 0.0250 0.0000 0.0000 0.0 0.0
C_29415 N_2178112001_014b0b7 N_2178112002_4d325e0 30.8000 0.0250 0.0000 0.0000 0.0 0.0
C_29416 N_2178112002_d735985 N_2178112003_9da1bc7 29.8000 0.0250 0.0000 0.0000 0.0 0.0
C_29417 N_2178112002_4d325e0 N_2178112003_055a6d2 29.8000 0.0250 0.0000 0.0000 0.0 0.0
C_29418 N_2178112003_9da1bc7 N_2178112004_ec148eb 30.1000 0.0250 0.0000 0.0000 0.0 0.0
C_29419 N_2178112003_055a6d2 N_2178112004_557bbcd 30.1000 0.0250 0.0000 0.0000 0.0 0.0
C_29420 N_2178112004_ec148eb N_2178102902_1dabbba 29.9000 0.0250 0.0000 0.0000 0.0 0.0
C_29421 N_2178112004_557bbcd N_2178102902_2d8f119 29.9000 0.0250 0.0000 0.0000 0.0 0.0
C_29422 N_2178112101_3ccb77e N_2178111103_705c8be 5.0000 0.0250 0.0000 0.0000 0.0 0.0
C_29423 N_2178112101_22ba71c N_2178111103_fc85f10 5.0000 0.0250 0.0000 0.0000 0.0 0.0
C_29424 N_2178112102_80bb997 N_2178112001_374f33a 30.8000 0.0250 0.0000 0.0000 0.0 0.0
C_29425 N_2178112102_4fc5cf5 N_2178112001_014b0b7 30.8000 0.0250 0.0000 0.0000 0.0 0.0
C_29426 N_2178112103_3df4b98 N_2178112101_3ccb77e 15.6000 0.0160 0.0000 0.0000 0.0 0.0
C_29427 N_2178112103_00787c6 N_2178112101_22ba71c 15.6000 0.0160 0.0000 0.0000 0.0 0.0
C_29428 N_2178112104_bd30ff4 N_2178112103_3df4b98 45.5000 0.0250 0.0000 0.0120 0.0 0.0
C_29429 N_2178112104_18b4a47 N_2178112103_00787c6 45.5000 0.0250 0.0000 0.0120 0.0 0.0
C_29430 N_2178112105_a6f6a27 N_2178112104_bd30ff4 15.9000 0.0160 0.0000 0.0000 0.0 0.0
C_29431 N_2178112105_5f7df1a N_2178112104_18b4a47 15.9000 0.0160 0.0000 0.0000 0.0 0.0
C_29432 N_2178112106_444ec74 N_2178112105_a6f6a27 15.4000 0.0250 0.0000 0.0000 0.0 0.0
C_29433 N_2178112106_6732a0e N_2178112105_5f7df1a 15.4000 0.0250 0.0000 0.0000 0.0 0.0
C_29434 N_2178112401_a1b78ee N_2178111301_1671a84 90.9000 0.0250 0.0000 0.0000 0.0 0.0
C_29435 N_2178112401_c91121e N_2178111301_aede517 90.9000 0.0250 0.0000 0.0000 0.0 0.0
C_29436 N_2178112402_0e245c0 N_2178112401_a1b78ee 70.9000 0.0250 0.0000 0.0000 0.0 0.0
C_29437 N_2178112402_67c9944 N_2178112401_c91121e 70.9000 0.0250 0.0000 0.0000 0.0 0.0
C_29438 N_2178112501_1c81871 N_2178111504_db45834 29.9000 0.0160 0.0000 0.0000 0.0 0.0
C_29439 N_2178112501_0bd4217 N_2178111504_904363b 29.9000 0.0160 0.0000 0.0000 0.0 0.0
C_29440 N_2178112502_d093b2e N_2178112501_1c81871 30.0000 0.0250 0.0000 0.0000 0.0 0.0
C_29441 N_2178112502_f25eca4 N_2178112501_0bd4217 30.0000 0.0250 0.0000 0.0000 0.0 0.0
C_29442 N_2178112503_3a722c8 N_2178112502_d093b2e 29.9000 0.0250 0.0000 0.0000 0.0 0.0
C_29443 N_2178112503_9b8d9f2 N_2178112502_f25eca4 29.9000 0.0250 0.0000 0.0000 0.0 0.0
C_29444 N_2178113101_cc43ff2 N_2178112106_444ec74 29.4000 0.0250 0.0000 0.0000 0.0 0.0
C_29445 N_2178113101_fb211e1 N_2178112106_6732a0e 29.4000 0.0250 0.0000 0.0000 0.0 0.0
C_29446 N_2178113102_1febbbe N_2178113101_cc43ff2 5.4000 0.0250 0.0000 0.0000 0.0 0.0
C_29447 N_2178113102_10c73e1 N_2178113101_fb211e1 5.4000 0.0250 0.0000 0.0000 0.0 0.0
C_29448 N_2178113103_d346a54 N_2178113102_1febbbe 12.1000 0.0160 0.0000 0.0000 0.0 0.0
C_29449 N_2178113103_a59bc88 N_2178113102_10c73e1 12.1000 0.0160 0.0000 0.0000 0.0 0.0
C_29450 N_2178113501_e11a285 N_2178112503_3a722c8 30.2000 0.0250 0.0000 0.0000 0.0 0.0
C_29451 N_2178113501_e2a11ed N_2178112503_9b8d9f2 30.2000 0.0250 0.0000 0.0000 0.0 0.0
C_29452 N_2178113502_ae0e374 N_2178112402_0e245c0 103.2000 0.0250 0.0000 0.0000 0.0 0.0
C_29453 N_2178113502_4b15efd N_2178112402_67c9944 103.2000 0.0250 0.0000 0.0000 0.0 0.0
C_29454 N_2178113503_a4ea40a N_2178113501_e11a285 30.0000 0.0250 0.0000 0.0000 0.0 0.0
C_29455 N_2178113503_a24ebbc N_2178113501_e2a11ed 30.0000 0.0250 0.0000 0.0000 0.0 0.0
C_29456 N_2178113504_0daf97f N_2178113503_a4ea40a 29.9000 0.0250 0.0000 0.0000 0.0 0.0
C_29457 N_2178113504_4c73cb5 N_2178113503_a24ebbc 29.9000 0.0250 0.0000 0.0000 0.0 0.0
C_29458 N_2178113505_ba8c22c N_2178113504_0daf97f 30.1000 0.0250 0.0000 0.0000 0.0 0.0
C_29459 N_2178113505_69c912c N_2178113504_4c73cb5 30.1000 0.0250 0.0000 0.0000 0.0 0.0
C_29460 N_2178114501_e39daf8 N_2178113502_ae0e374 81.2000 0.0250 0.0000 0.0000 0.0 0.0
C_29461 N_2178114501_91100d6 N_2178113502_4b15efd 81.2000 0.0250 0.0000 0.0000 0.0 0.0
C_29462 N_2178114502_e780fec N_2178114501_e39daf8 27.0000 0.0250 0.0000 0.0000 0.0 0.0
C_29463 N_2178114502_14fec3a N_2178114501_91100d6 27.0000 0.0250 0.0000 0.0000 0.0 0.0
C_29464 N_2178114601_9f6074e N_2178113505_ba8c22c 29.9000 0.0250 0.0000 0.0000 0.0 0.0
C_29465 N_2178114601_6929bf5 N_2178113505_69c912c 29.9000 0.0250 0.0000 0.0000 0.0 0.0
C_29466 N_2178114602_1fc5177 N_2178114601_9f6074e 29.9000 0.0250 0.0000 0.0000 0.0 0.0
C_29467 N_2178114602_4a3b666 N_2178114601_6929bf5 29.9000 0.0250 0.0000 0.0000 0.0 0.0
C_29468 N_2178114603_ede3164 N_2178114602_1fc5177 30.1000 0.0250 0.0000 0.0000 0.0 0.0
C_29469 N_2178114603_d4944ed N_2178114602_4a3b666 30.1000 0.0250 0.0000 0.0000 0.0 0.0
C_29470 N_2178115601_4dd8f3b N_2178114603_ede3164 30.0000 0.0250 0.0000 0.0000 0.0 0.0
C_29471 N_2178115601_e403ccf N_2178114603_d4944ed 30.0000 0.0250 0.0000 0.0000 0.0 0.0
C_29472 N_2178115602_1fe49a9 N_2178115601_4dd8f3b 30.0000 0.0250 0.0000 0.0000 0.0 0.0
C_29473 N_2178115602_fa842de N_2178115601_e403ccf 30.0000 0.0250 0.0000 0.0000 0.0 0.0
C_29474 N_2178115603_5657f7c N_2178115602_1fe49a9 30.1000 0.0250 0.0000 0.0000 0.0 0.0
C_29475 N_2178115603_b892cc6 N_2178115602_fa842de 30.1000 0.0250 0.0000 0.0000 0.0 0.0
C_29476 N_2178115604_9b0c57d N_2178115603_5657f7c 30.0000 0.0250 0.0000 0.0000 0.0 0.0
C_29477 N_2178115604_ee94906 N_2178115603_b892cc6 30.0000 0.0250 0.0000 0.0000 0.0 0.0
C_29478 N_2178115901_6acf95a N_2178115902_9f02e45 7.9000 0.0160 0.0000 0.0000 0.0 0.0
C_29479 N_2178115901_b500719 N_2178115902_2ed64c7 7.9000 0.0160 0.0000 0.0000 0.0 0.0
C_29480 N_2178115902_9f02e45 N_2178116901_661508b 62.9000 0.0160 0.0000 0.0000 0.0 0.0
C_29481 N_2178115902_2ed64c7 N_2178116901_9df77ec 62.9000 0.0160 0.0000 0.0000 0.0 0.0
C_29482 N_2178116601_7008a6f N_2178115604_9b0c57d 30.0000 0.0250 0.0000 0.0000 0.0 0.0
C_29483 N_2178116601_0d9c21d N_2178115604_ee94906 30.0000 0.0250 0.0000 0.0000 0.0 0.0
C_29484 N_2178116602_7620d15 N_2178116601_7008a6f 30.1000 0.0250 0.0000 0.0000 0.0 0.0
C_29485 N_2178116602_e6c7d80 N_2178116601_0d9c21d 30.1000 0.0250 0.0000 0.0000 0.0 0.0
C_29486 N_2178116603_8db2c1a N_2178116602_7620d15 25.1000 0.0250 0.0000 0.0000 0.0 0.0
C_29487 N_2178116603_564a15a N_2178116602_e6c7d80 25.1000 0.0250 0.0000 0.0000 0.0 0.0
C_29488 N_2178116701_6558e5b N_2178116702_8bdfb42 45.9000 0.0160 0.0000 0.0000 0.0 0.0
C_29489 N_2178116701_8a528ff N_2178116702_e7021a5 45.9000 0.0160 0.0000 0.0000 0.0 0.0
C_29490 N_2178116702_8bdfb42 N_2178116603_8db2c1a 38.1000 0.0160 0.0000 0.0000 0.0 0.0
C_29491 N_2178116702_e7021a5 N_2178116603_564a15a 38.1000 0.0160 0.0000 0.0000 0.0 0.0
C_29492 N_2178116801_ad24d3d N_2178116701_6558e5b 84.1000 0.0160 0.0000 0.0000 0.0 0.0
C_29493 N_2178116801_66ff251 N_2178116701_8a528ff 84.1000 0.0160 0.0000 0.0000 0.0 0.0
C_29494 N_2178116901_661508b N_2178116902_ccc133c 5.6000 0.0160 0.0000 0.0000 0.0 0.0
C_29495 N_2178116901_9df77ec N_2178116902_747ba25 5.6000 0.0160 0.0000 0.0000 0.0 0.0
C_29496 N_2178116902_ccc133c N_2178116904_22c8a6f 24.9000 0.0160 0.0000 0.0000 0.0 0.0
C_29497 N_2178116902_747ba25 N_2178116904_0ed3f85 24.9000 0.0160 0.0000 0.0000 0.0 0.0
C_29498 N_2178116903_f1332b8 N_2178116801_ad24d3d 78.6000 0.0160 0.0000 0.0000 0.0 0.0
C_29499 N_2178116903_6069617 N_2178116801_66ff251 78.6000 0.0160 0.0000 0.0000 0.0 0.0
C_29500 N_2178116904_22c8a6f N_2178116903_f1332b8 23.6000 0.0160 0.0000 0.0000 0.0 0.0
C_29501 N_2178116904_0ed3f85 N_2178116903_6069617 23.6000 0.0160 0.0000 0.0000 0.0 0.0
C_29503 N_2178117601_335e55a N_2178116603_8db2c1a 34.9000 0.0250 0.0000 0.0000 0.0 0.0
C_29504 N_2178117601_2fa1ae0 N_2178116603_564a15a 34.9000 0.0250 0.0000 0.0000 0.0 0.0
C_29505 N_2178117701_16a4cc8 N_2178117601_335e55a 29.8000 0.0250 0.0000 0.0000 0.0 0.0
C_29506 N_2178117701_d9d067c N_2178117601_2fa1ae0 29.8000 0.0250 0.0000 0.0000 0.0 0.0
C_29507 N_2178117702_8b73d9b N_2178117701_16a4cc8 30.0000 0.0250 0.0000 0.0000 0.0 0.0
C_29508 N_2178117702_b0e2be3 N_2178117701_d9d067c 30.0000 0.0250 0.0000 0.0000 0.0 0.0
C_29509 N_2178118701_675db95 N_2178117702_8b73d9b 30.1000 0.0250 0.0000 0.0000 0.0 0.0
C_29510 N_2178118701_df4be3e N_2178117702_b0e2be3 30.1000 0.0250 0.0000 0.0000 0.0 0.0
C_29511 N_2178118702_d2d36e4 N_2178118701_675db95 29.9000 0.0250 0.0000 0.0000 0.0 0.0
C_29512 N_2178118702_a9bfca8 N_2178118701_df4be3e 29.9000 0.0250 0.0000 0.0000 0.0 0.0
C_29513 N_2178118703_1a4a38f N_2178118702_d2d36e4 30.0000 0.0250 0.0000 0.0000 0.0 0.0
C_29514 N_2178118703_a114f9f N_2178118702_a9bfca8 30.0000 0.0250 0.0000 0.0000 0.0 0.0
C_29515 N_2178118704_eb56592 N_2178118703_1a4a38f 29.9000 0.0250 0.0000 0.0000 0.0 0.0
C_29516 N_2178118704_528f995 N_2178118703_a114f9f 29.9000 0.0250 0.0000 0.0000 0.0 0.0
C_29521 N_2178119701_bc98955 N_2178118704_eb56592 18.6000 0.0250 0.0000 0.0000 0.0 0.0
C_29522 N_2178119701_3e6df10 N_2178118704_528f995 18.6000 0.0250 0.0000 0.0000 0.0 0.0
C_29523 N_2178123901_11b7871 N_2178133003_b07e8ff 30.1000 0.0160 0.0000 0.0000 0.0 0.0
C_29524 N_2178123902_de7f838 N_2178123901_11b7871 30.0000 0.0160 0.0000 0.0000 0.0 0.0
C_29525 N_2178123903_a1c155d N_2178123902_de7f838 30.1000 0.0160 0.0000 0.0000 0.0 0.0
C_29526 N_2178124101_444f306 N_2178125101_1b920ba 29.4000 0.0160 0.0000 0.0000 0.0 0.0
C_29527 N_2178124101_4dd2ca1 N_2178125101_6f66338 29.4000 0.0160 0.0000 0.0000 0.0 0.0
C_29528 N_2178124201_2c95bc4 N_2178124202_db361d0 33.3000 0.0160 0.0000 0.0000 0.0 0.0
C_29529 N_2178124201_314fd92 N_2178124202_a4eab2a 33.3000 0.0160 0.0000 0.0000 0.0 0.0
C_29530 N_2178124202_db361d0 N_2178124101_444f306 18.8000 0.0160 0.0000 0.0000 0.0 0.0
C_29531 N_2178124202_a4eab2a N_2178124101_4dd2ca1 18.8000 0.0160 0.0000 0.0000 0.0 0.0
C_29532 N_2178124801_878a6a4 N_2178124902_d1838c7 30.6000 0.0160 0.0000 0.0000 0.0 0.0
C_29533 N_2178124802_f408b15 N_2178124801_878a6a4 27.1000 0.0160 0.0000 0.0000 0.0 0.0
C_29534 N_2178124901_5a44ae8 N_2178123903_a1c155d 30.0000 0.0160 0.0000 0.0000 0.0 0.0
C_29535 N_2178124902_d1838c7 N_2178124901_5a44ae8 32.3000 0.0160 0.0000 0.0000 0.0 0.0
C_29536 N_2178125001_e599316 N_2178125002_912d138 3.9000 0.0160 0.0000 0.0000 0.0 0.0
C_29537 N_2178125001_c1f162c N_2178125002_b97586a 3.9000 0.0160 0.0000 0.0000 0.0 0.0
C_29538 N_2178125002_912d138 N_2178125003_be1c642 11.3000 0.0160 0.0000 0.0000 0.0 0.0
C_29539 N_2178125002_b97586a N_2178125003_7f7867c 11.3000 0.0160 0.0000 0.0000 0.0 0.0
C_29540 N_2178125003_be1c642 N_2178125005_f30a34b 35.1000 0.0160 0.0000 0.0000 0.0 0.0
C_29541 N_2178125003_7f7867c N_2178125005_ee77058 35.1000 0.0160 0.0000 0.0000 0.0 0.0
C_29542 N_2178125004_609b73e N_2178125001_e599316 56.1000 0.0160 0.0000 0.0000 0.0 0.0
C_29543 N_2178125004_4a9bade N_2178125001_c1f162c 56.1000 0.0160 0.0000 0.0000 0.0 0.0
C_29544 N_2178125005_f30a34b N_2178115901_6acf95a 40.1000 0.0160 0.0000 0.0000 0.0 0.0
C_29545 N_2178125005_ee77058 N_2178115901_b500719 40.1000 0.0160 0.0000 0.0000 0.0 0.0
C_29546 N_2178125101_1b920ba N_2178125102_fbc041d 23.4000 0.0160 0.0000 0.0000 0.0 0.0
C_29547 N_2178125101_6f66338 N_2178125102_054c9c3 23.4000 0.0160 0.0000 0.0000 0.0 0.0
C_29548 N_2178125102_fbc041d N_2178125103_00ce888 32.6000 0.0160 0.0000 0.0000 0.0 0.0
C_29549 N_2178125102_054c9c3 N_2178125103_0cc0954 32.6000 0.0160 0.0000 0.0000 0.0 0.0
C_29550 N_2178125103_00ce888 N_2178125004_609b73e 74.9000 0.0160 0.0000 0.0000 0.0 0.0
C_29551 N_2178125103_0cc0954 N_2178125004_4a9bade 74.9000 0.0160 0.0000 0.0000 0.0 0.0
C_29557 N_2178130401_6e132d1 N_2177139402_629ce16 9.8000 0.0160 0.0000 0.0000 0.0 0.0
C_29558 N_2178130402_e315915 N_2178130403_7e3d0cf 44.7000 0.0160 0.0000 0.0000 0.0 0.0
C_29559 N_2178130403_7e3d0cf N_2178130401_6e132d1 38.6000 0.0160 0.0000 0.0000 0.0 0.0
C_29560 N_2178130404_181d078 N_2178130403_7e3d0cf 35.6000 0.0250 0.0000 0.0000 0.0 0.0
C_29561 N_2178130405_66bac5c N_2178130404_181d078 14.8000 0.0250 0.0000 0.0000 0.0 0.0
C_29562 N_2178130406_f8e2edb N_2178130405_66bac5c 8.1000 0.0250 0.0000 0.0000 0.0 0.0
C_29563 N_2178130407_b538b97 N_2178130405_66bac5c 14.2000 0.0250 0.0000 0.0000 0.0 0.0
C_29564 N_2178130408_e9488fc N_2178130406_f8e2edb 24.8000 0.0250 0.0000 0.0000 0.0 0.0
C_29565 N_2178130501_d324718 N_2178130608_6f3a7c4 17.4000 0.0250 0.0000 0.0000 0.0 0.0
C_29566 N_2178130601_18f14ca N_2177139605_b1e88f5 8.1000 0.0250 0.0000 0.0000 0.0 0.0
C_29567 N_2178130602_748ecf5 N_2178130601_18f14ca 21.1000 0.0250 0.0000 0.0000 0.0 0.0
C_29568 N_2178130603_f65ed23 N_2178130602_748ecf5 8.9000 0.0250 0.0000 0.0000 0.0 0.0
C_29569 N_2178130604_6aebf7a N_2178130603_f65ed23 12.5000 0.0250 0.0000 0.0000 0.0 0.0
C_29570 N_2178130605_00f2bcd N_2178130604_6aebf7a 14.2000 0.0160 0.0000 0.0000 0.0 0.0
C_29571 N_2178130606_3ec74b3 N_2178130605_00f2bcd 6.7000 0.0160 0.0000 0.0000 0.0 0.0
C_29572 N_2178130607_32f02c8 N_2178130606_3ec74b3 8.0000 0.0160 0.0000 0.0000 0.0 0.0
C_29573 N_2178130608_6f3a7c4 N_2178130607_32f02c8 16.1000 0.0160 0.0000 0.0000 0.0 0.0
C_29574 N_2178130609_3bad5f2 N_2178130501_d324718 13.2000 0.0250 0.0000 0.0000 0.0 0.0
C_29575 N_2178130701_dbcacd0 N_2177139708_53e21dd 17.4000 0.0250 0.0000 0.0240 0.0 0.0
C_29576 N_2178130702_b5f026c N_2178130706_cfb6f4f 27.3000 0.0250 0.0000 0.0000 0.0 0.0
C_29577 N_2178130703_2305ba4 N_2178130702_b5f026c 7.4000 0.0250 0.0000 0.0000 0.0 0.0
C_29578 N_2178130704_7fb70ca N_2178130701_dbcacd0 11.4000 0.0250 0.0000 0.0000 0.0 0.0
C_29579 N_2178130705_7a8a6da N_2178130703_2305ba4 9.7000 0.0250 0.0000 0.0000 0.0 0.0
C_29580 N_2178130706_cfb6f4f N_2178130704_7fb70ca 12.4000 0.0250 0.0000 0.0000 0.0 0.0
C_29581 N_2178130707_648e7d1 N_2178130705_7a8a6da 9.1000 0.0250 0.0000 0.0000 0.0 0.0
C_29582 N_2178130708_cfaa95c N_2178130707_648e7d1 6.5000 0.0250 0.0000 0.0000 0.0 0.0
C_29583 N_2178130709_3a526ab N_2178130708_cfaa95c 16.0000 0.0250 0.0000 0.0000 0.0 0.0
C_29584 N_2178130710_20dcd49 N_2178130709_3a526ab 9.4000 0.0250 0.0000 0.0000 0.0 0.0
C_29585 N_2178130711_065583e N_2178130710_20dcd49 22.3000 0.0250 0.0000 0.0000 0.0 0.0
C_29586 N_2178130801_8328427 N_2178130711_065583e 18.2000 0.0250 0.0000 0.0000 0.0 0.0
C_29587 N_2178130802_4228985 N_2178130801_8328427 15.1000 0.0250 0.0000 0.0000 0.0 0.0
C_29588 N_2178130803_5c5926a N_2178130802_4228985 14.7000 0.0250 0.0000 0.0000 0.0 0.0
C_29590 N_2178131201_722f590 N_2178131304_d5a6daa 30.4000 0.0160 0.0000 0.0000 0.0 0.0
C_29591 N_2178131202_e8fed4b N_2178131201_722f590 29.9000 0.0160 0.0000 0.0000 0.0 0.0
C_29592 N_2178131301_a04f5c6 N_2178130407_b538b97 30.3000 0.0250 0.0000 0.0000 0.0 0.0
C_29593 N_2178131302_3617d8f N_2178131301_a04f5c6 30.0000 0.0250 0.0000 0.0000 0.0 0.0
C_29594 N_2178131303_b42036d N_2178131302_3617d8f 25.3000 0.0160 0.0000 0.0000 0.0 0.0
C_29595 N_2178131304_d5a6daa N_2178131303_b42036d 28.5000 0.0160 0.0000 0.0000 0.0 0.0
C_29596 N_2178131401_f32ba30 N_2178130408_e9488fc 9.8000 0.0250 0.0000 0.0000 0.0 0.0
C_29597 N_2178131402_ac0bc75 N_2178131401_f32ba30 23.3000 0.0250 0.0000 0.0000 0.0 0.0
C_29598 N_2178131403_beafdc7 N_2178131402_ac0bc75 27.4000 0.0250 0.0000 0.0000 0.0 0.0
C_29599 N_2178131404_14648c2 N_2178131403_beafdc7 8.7000 0.0250 0.0000 0.0000 0.0 0.0
C_29600 N_2178131405_dae00a1 N_2178131404_14648c2 25.2000 0.0160 0.0000 0.0000 0.0 0.0
C_29601 N_2178131406_7a132f7 N_2178131405_dae00a1 14.6000 0.0160 0.0000 0.0000 0.0 0.0
C_29602 N_2178131601_aeb4046 N_2178130609_3bad5f2 14.0000 0.0250 0.0000 0.0000 0.0 0.0
C_29603 N_2178131602_7ffbce1 N_2178131601_aeb4046 15.6000 0.0250 0.0000 0.0000 0.0 0.0
C_29604 N_2178131603_94c6628 N_2178131602_7ffbce1 7.4000 0.0250 0.0000 0.0000 0.0 0.0
C_29605 N_2178131604_9da7595 N_2178131603_94c6628 21.8000 0.0250 0.0000 0.0000 0.0 0.0
C_29606 N_2178131605_d56dbf1 N_2178131604_9da7595 26.3000 0.0250 0.0000 0.0000 0.0 0.0
C_29607 N_2178131606_18baa04 N_2178131605_d56dbf1 15.5000 0.0250 0.0000 0.0000 0.0 0.0
C_29608 N_2178131607_4ed066c N_2178131606_18baa04 20.7000 0.0250 0.0000 0.0000 0.0 0.0
C_29609 N_2178131608_8b5a44d N_2178131607_4ed066c 20.6000 0.0250 0.0000 0.0000 0.0 0.0
C_29610 N_2178131801_ea25dbc N_2178130803_5c5926a 14.9000 0.0250 0.0000 0.0000 0.0 0.0
C_29611 N_2178131802_8c917be N_2178131801_ea25dbc 16.1000 0.0250 0.0000 0.0000 0.0 0.0
C_29612 N_2178131803_b1f1e50 N_2178131802_8c917be 18.3000 0.0160 0.0000 0.0000 0.0 0.0
C_29613 N_2178131804_297ab5f N_2178131803_b1f1e50 10.1000 0.0160 0.0000 0.0000 0.0 0.0
C_29614 N_2178131805_d3e12ff N_2178131804_297ab5f 28.1000 0.0160 0.0000 0.0000 0.0 0.0
C_29615 N_2178131806_520c96c N_2178131805_d3e12ff 4.0000 0.0160 0.0000 0.0000 0.0 0.0
C_29617 N_2178131902_06a940a N_2178131806_520c96c 29.5000 0.0250 0.0000 0.0000 0.0 0.0
C_29618 N_2178132001_03e9cfa N_2178132104_ee133c0 30.1000 0.0160 0.0000 0.0000 0.0 0.0
C_29619 N_2178132101_62e4040 N_2178132202_72f17b4 30.1000 0.0160 0.0000 0.0000 0.0 0.0
C_29620 N_2178132102_d07ddd8 N_2178132101_62e4040 29.2000 0.0160 0.0000 0.0000 0.0 0.0
C_29621 N_2178132103_f5eb89f N_2178132102_d07ddd8 30.2000 0.0160 0.0000 0.0000 0.0 0.0
C_29622 N_2178132104_ee133c0 N_2178132103_f5eb89f 30.1000 0.0160 0.0000 0.0000 0.0 0.0
C_29623 N_2178132201_b572730 N_2178131202_e8fed4b 29.6000 0.0160 0.0000 0.0000 0.0 0.0
C_29624 N_2178132202_72f17b4 N_2178132201_b572730 30.8000 0.0160 0.0000 0.0000 0.0 0.0
C_29625 N_2178132401_56e0479 N_2178131406_7a132f7 11.2000 0.0250 0.0000 0.0000 0.0 0.0
C_29626 N_2178132402_18f6994 N_2178132401_56e0479 5.2000 0.0250 0.0000 0.0000 0.0 0.0
C_29627 N_2178132403_e67adf6 N_2178132402_18f6994 14.0000 0.0250 0.0000 0.0000 0.0 0.0
C_29628 N_2178132404_3f81905 N_2178132403_e67adf6 10.7000 0.0250 0.0000 0.0000 0.0 0.0
C_29629 N_2178132405_32b57ec N_2178132404_3f81905 12.1000 0.0250 0.0000 0.0000 0.0 0.0
C_29630 N_2178132406_45cb11d N_2178132405_32b57ec 18.3000 0.0250 0.0000 0.0000 0.0 0.0
C_29631 N_2178132407_c85aee6 N_2178132406_45cb11d 16.1000 0.0250 0.0000 0.0000 0.0 0.0
C_29632 N_2178132408_8bd91a3 N_2178132407_c85aee6 21.3000 0.0250 0.0000 0.0000 0.0 0.0
C_29634 N_2178132601_6f40a42 N_2178131608_8b5a44d 10.1000 0.0250 0.0000 0.0000 0.0 0.0
C_29635 N_2178132602_45857d6 N_2178132601_6f40a42 14.5000 0.0250 0.0000 0.0000 0.0 0.0
C_29636 N_2178132603_7a5fff0 N_2178132602_45857d6 16.0000 0.0250 0.0000 0.0000 0.0 0.0
C_29637 N_2178132604_00eea72 N_2178132603_7a5fff0 20.9000 0.0160 0.0000 0.0000 0.0 0.0
C_29638 N_2178132605_14de3ae N_2178132604_00eea72 11.3000 0.0160 0.0000 0.0000 0.0 0.0
C_29639 N_2178132606_2622d1b N_2178132605_14de3ae 28.7000 0.0250 0.0000 0.0000 0.0 0.0
C_29640 N_2178132607_2d9ccd8 N_2178132606_2622d1b 30.0000 0.0250 0.0000 0.0000 0.0 0.0
C_29641 N_2178132901_395c83d N_2178131902_06a940a 30.8000 0.0250 0.0000 0.0000 0.0 0.0
C_29642 N_2178132902_d9b7737 N_2178132901_395c83d 29.2000 0.0250 0.0000 0.0000 0.0 0.0
C_29643 N_2178132903_294e6b3 N_2178132902_d9b7737 18.9000 0.0250 0.0000 0.0000 0.0 0.0
C_29644 N_2178132904_158e338 N_2178132903_294e6b3 11.5000 0.0250 0.0000 0.0000 0.0 0.0
C_29645 N_2178132905_0c5ed3b N_2178132904_158e338 19.6000 0.0250 0.0000 0.0000 0.0 0.0
C_29647 N_2178133001_634aa4f N_2178132001_03e9cfa 29.7000 0.0250 0.0000 0.0000 0.0 0.0
C_29648 N_2178133002_91fc2fa N_2178133001_634aa4f 27.6000 0.0250 0.0000 0.0000 0.0 0.0
C_29649 N_2178133003_b07e8ff N_2178133002_91fc2fa 26.5000 0.0160 0.0000 0.0000 0.0 0.0
C_29655 N_2178133601_bf4676a N_2178132607_2d9ccd8 8.7000 0.0250 0.0000 0.0000 0.0 0.0
C_29656 N_2178133602_17291ab N_2178133601_bf4676a 21.4000 0.0250 0.0000 0.0000 0.0 0.0
C_29657 N_2178133701_57133a4 N_2178133602_17291ab 30.2000 0.0250 0.0000 0.0000 0.0 0.0
C_29658 N_2178133702_8a05632 N_2178133701_57133a4 30.3000 0.0250 0.0000 0.0000 0.0 0.0
C_29659 N_2178133703_1843859 N_2178133702_8a05632 17.6000 0.0160 0.0000 0.0000 0.0 0.0
C_29660 N_2178133704_12726c9 N_2178133703_1843859 4.2000 0.0160 0.0000 0.0000 0.0 0.0
C_29661 N_2178133705_fc4d95e N_2178133704_12726c9 5.8000 0.0250 0.0000 0.0000 0.0 0.0
C_29662 N_2178133706_307ef28 N_2178133705_fc4d95e 29.4000 0.0160 0.0000 0.0000 0.0 0.0
C_29663 N_2178133707_1f3294a N_2178133706_307ef28 17.2000 0.0160 0.0000 0.0000 0.0 0.0
C_29664 N_2178133708_3bdf916 N_2178133707_1f3294a 15.2000 0.0160 0.0000 0.0000 0.0 0.0
C_29669 N_2178134801_4e89c82 N_2178133708_3bdf916 29.5000 0.0160 0.0000 0.0000 0.0 0.0
C_29670 N_2178134802_09214ec N_2178134801_4e89c82 31.0000 0.0160 0.0000 0.0000 0.0 0.0
C_29671 N_2178134803_66d061d N_2178134802_09214ec 13.2000 0.0160 0.0000 0.0000 0.0 0.0
C_29672 N_2178134804_6f3e340 N_2178134803_66d061d 5.6000 0.0160 0.0000 0.0000 0.0 0.0
C_29673 N_2178134805_eb2ef24 N_2178134804_6f3e340 9.8000 0.0250 0.0000 0.0000 0.0 0.0
C_29674 N_2178134806_3d51710 N_2178134805_eb2ef24 9.4000 0.0250 0.0000 0.0000 0.0 0.0
C_29675 N_2178134807_a97d7d2 N_2178134806_3d51710 21.2000 0.0250 0.0000 0.0000 0.0 0.0
C_29676 N_2178134808_a19b0da N_2178134807_a97d7d2 4.5000 0.0160 0.0000 0.0000 0.0 0.0
C_29682 N_2178135801_fc678c2 N_2178134809_50e5d42 51.6000 0.0250 0.0000 0.0000 0.0 0.0
C_29683 N_2178135802_f7537e2 N_2178135801_fc678c2 26.7000 0.0250 0.0000 0.0000 0.0 0.0
C_29684 N_2178135803_fce4cc0 N_2178135802_f7537e2 31.5000 0.0250 0.0000 0.0000 0.0 0.0
C_29685 N_2178136401_754309d N_2178135403_c4ee85a 57.1000 0.0250 0.0000 0.0000 0.0 0.0
C_29686 N_2178136402_4bd3466 N_2178136401_754309d 39.2000 0.0250 0.0000 0.0000 0.0 0.0
C_29687 N_2178136403_95bb3a8 N_2178136402_4bd3466 10.2000 0.0250 0.0000 0.0000 0.0 0.0
C_29688 N_2178136404_52f1ff2 N_2178136403_95bb3a8 11.9000 0.0250 0.0000 0.0000 0.0 0.0
C_29689 N_2178136501_73e6872 N_2178136404_52f1ff2 33.2000 0.0250 0.0000 0.0000 0.0 0.0
C_29690 N_2178136502_cdf2758 N_2178136501_73e6872 35.4000 0.0250 0.0000 0.0000 0.0 0.0
C_29691 N_2178136503_97e1402 N_2178136502_cdf2758 38.4000 0.0250 0.0000 0.0000 0.0 0.0
C_29693 N_2178136801_2d17868 N_2178135803_fce4cc0 64.9000 0.0250 0.0000 0.0000 0.0 0.0
C_29694 N_2178137601_dedf1b3 N_2178136503_97e1402 32.1000 0.0250 0.0000 0.0000 0.0 0.0
C_29697 N_2178137801_08ba9c4 N_2178137603_2aa84df 191.3000 0.0160 0.0000 0.0000 0.0 0.0
C_29698 N_2178137801_08ba9c4 N_2178136801_2d17868 98.8000 0.0250 0.1200 0.0000 0.0 0.0
C_29700 N_2178138601_476f250 B_2178137603_29700_aaa625c 160.1000 0.0160 0.0000 0.3000 0.0 0.0
C_29701 N_2178139601_289c84b N_2178138601_476f250 101.9000 0.0160 0.0000 0.0000 0.0 0.0
C_29707 N_2178142101_f782355 N_2178142104_fff4fcd 29.8000 0.0250 0.0000 0.0000 0.0 0.0
C_29708 N_2178142102_53b816a N_2178142101_f782355 29.1000 0.0250 0.0000 0.0000 0.0 0.0
C_29711 N_2178142201_2256636 N_2178142102_53b816a 27.3000 0.0160 0.0000 0.0000 0.0 0.0
C_29712 N_2178142202_5eaa46a N_2178142201_2256636 7.9000 0.0160 0.0000 0.0000 0.0 0.0
C_29713 N_2178142203_3c3a61e N_2178142202_5eaa46a 25.6000 0.0250 0.0000 0.0000 0.0 0.0
C_29714 N_2178142204_b90abad N_2178142203_3c3a61e 30.0000 0.0250 0.0000 0.0000 0.0 0.0
C_29716 N_2178143002_94f892f N_2178143001_58242ba 19.4000 0.0160 0.0000 0.0000 0.0 0.0
C_29717 N_2178143003_8acb50e N_2178143002_94f892f 7.1000 0.0250 0.0000 0.0000 0.0 0.0
C_29722 N_2178143201_1ba1200 N_2178142204_b90abad 29.1000 0.0250 0.0000 0.0000 0.0 0.0
C_29723 N_2178143301_1b59689 N_2178143201_1ba1200 30.9000 0.0250 0.0000 0.0000 0.0 0.0
C_29724 N_2178143302_38c358e N_2178143301_1b59689 30.3000 0.0250 0.0000 0.0000 0.0 0.0
C_29725 N_2178143303_6328d44 N_2178143302_38c358e 30.6000 0.0250 0.0000 0.0000 0.0 0.0
C_29726 N_2178143401_141c24f N_2178143303_6328d44 28.5000 0.0250 0.0000 0.0000 0.0 0.0
C_29727 N_2178143402_228b9aa N_2178143401_141c24f 29.9000 0.0250 0.0000 0.0000 0.0 0.0
C_29748 N_2178146206_0e6d2f5 N_2178146205_d4a0388 18.5000 0.0250 0.0000 0.0000 0.0 0.0
C_29749 N_2178146207_4cbc338 N_2178146206_0e6d2f5 13.0000 0.0250 0.0000 0.0000 0.0 0.0
C_29750 N_2178146208_5a5eaa4 N_2178146209_fe6dad8 22.6000 0.0250 0.0000 0.0000 0.0 0.0
C_29751 N_2178146209_fe6dad8 N_2178146207_4cbc338 12.1000 0.0250 0.0000 0.0000 0.0 0.0
C_29752 N_2178147001_2634e64 N_2178137801_08ba9c4 178.0000 0.0160 0.0000 0.1860 0.0 0.0
C_29753 N_2178147201_b208a27 N_2178146208_5a5eaa4 26.8000 0.0250 0.0000 0.0000 0.0 0.0
C_29754 N_2178147202_cd67ca9 N_2178147201_b208a27 18.7000 0.0250 0.0000 0.0000 0.0 0.0
C_29755 N_2178147203_70a84ab N_2178147202_cd67ca9 19.6000 0.0250 0.0000 0.0000 0.0 0.0
C_29756 N_2178147204_f4d4688 N_2178147203_70a84ab 22.4000 0.0250 0.0000 0.0000 0.0 0.0
C_29757 N_2178147301_7f023b7 N_2178147204_f4d4688 29.7000 0.0250 0.0000 0.0000 0.0 0.0
C_29758 N_2178147302_4f7349b N_2178147301_7f023b7 19.9000 0.0250 0.0000 0.0000 0.0 0.0
C_29759 N_2178147303_a104ee5 N_2178147302_4f7349b 10.3000 0.0250 0.0000 0.0000 0.0 0.0
C_29760 N_2178147304_b27bb7c N_2178147303_a104ee5 8.1000 0.0160 0.0000 0.0000 0.0 0.0
C_29761 N_2178148201_422147e N_2178147001_2634e64 165.9000 0.0160 0.0000 0.0000 0.0 0.0
C_29762 N_2178148301_8027c4b N_2178147304_b27bb7c 13.0000 0.0160 0.5970 0.0000 0.0 0.0
C_29763 N_2178148301_8027c4b N_2178148201_422147e 123.7000 0.0160 0.0000 0.0000 0.0 0.0
C_29764 N_2178148401_0b1af1e N_2178148301_8027c4b 116.7000 0.0160 0.0000 0.5970 0.0 0.0
C_29765 N_2178148501_2716d88 N_2178148401_0b1af1e 97.3000 0.0160 0.0000 0.0000 0.0 0.0
C_29766 N_2178148701_f7c8290 N_2178148501_2716d88 165.5000 0.0160 0.0000 0.0000 0.0 0.0
C_29767 N_2178148801_a1e1e39 N_2178148701_f7c8290 102.4000 0.0160 0.0000 0.0000 0.0 0.0
C_29768 N_2178149701_35cfe2a N_2178148801_a1e1e39 81.1000 0.0160 0.0000 0.0000 0.0 0.0
C_30000 N_2179090001_b5d58ec N_2178099002_e5fdf11 37.1000 0.0160 0.0000 0.0000 0.0 0.0
C_30039 N_2179100101_6b11e08 N_2179100102_f72550f 30.0000 0.0250 0.0000 0.0000 0.0 0.0
C_30040 N_2179100102_f72550f N_2179100103_392fe65 30.4000 0.0250 0.0000 0.0000 0.0 0.0
C_30041 N_2179100103_392fe65 N_2179100104_5186cb3 29.9000 0.0250 0.0000 0.0000 0.0 0.0
C_30042 N_2179100104_5186cb3 N_2179101101_eeaf747 29.7000 0.0250 0.0000 0.0000 0.0 0.0
C_30044 N_2179101101_eeaf747 N_2179101102_6242e5a 30.4000 0.0250 0.0000 0.0000 0.0 0.0
C_30045 N_2179101102_6242e5a N_2179101103_8e3ba5c 29.5000 0.0250 0.0000 0.0000 0.0 0.0
C_30046 N_2179101103_8e3ba5c N_2179102201_7f8847e 35.4000 0.0250 0.0000 0.0000 0.0 0.0
C_30050 N_2179102101_1b900eb N_2179102102_5a55747 19.6000 0.0250 0.0000 0.0000 0.0 0.0
C_30051 N_2179102102_5a55747 N_2179102103_940b451 10.5000 0.0250 0.0000 0.0000 0.0 0.0
C_30052 N_2179102103_940b451 N_2179102202_0364cc4 29.9000 0.0250 0.0000 0.0000 0.0 0.0
C_30053 N_2179102201_7f8847e N_2179102101_1b900eb 25.7000 0.0250 0.0000 0.0000 0.0 0.0
C_30054 N_2179102202_0364cc4 N_2179102203_cd3d0e4 31.7000 0.0250 0.0000 0.0000 0.0 0.0
C_30055 N_2179102203_cd3d0e4 N_2179102204_80d75ca 29.3000 0.0250 0.0000 0.0000 0.0 0.0
C_30056 N_2179102204_80d75ca N_2179103301_ee39837 34.2000 0.0250 0.0000 0.0000 0.0 0.0
C_30058 N_2179103201_99ce777 N_2179103202_d85dd92 5.2000 0.0250 0.0000 0.0000 0.0 0.0
C_30059 N_2179103202_d85dd92 N_2179103203_81a1f39 52.3000 0.0250 0.0000 0.0000 0.0 0.0
C_30060 N_2179103203_81a1f39 N_2179104201_b3b505f 29.3000 0.0250 0.0000 0.0000 0.0 0.0
C_30061 N_2179103301_ee39837 N_2179103302_e72b9a2 9.1000 0.0250 0.0000 0.0000 0.0 0.0
C_30062 N_2179103302_e72b9a2 N_2179103303_b99a87e 7.8000 0.0250 0.0000 0.0000 0.0 0.0
C_30063 N_2179103303_b99a87e N_2179103305_e4002e2 27.5000 0.0160 0.0000 0.0000 0.0 0.0
C_30065 N_2179103305_e4002e2 N_2179103201_99ce777 8.8000 0.0250 0.0000 0.0000 0.0 0.0
C_30068 N_2179104101_42ec585 N_2179104102_61a7618 31.8000 0.0250 0.0000 0.0000 0.0 0.0
C_30069 N_2179104102_61a7618 N_2179105101_22da92f 29.5000 0.0250 0.0000 0.0000 0.0 0.0
C_30070 N_2179104201_b3b505f N_2179104202_66cb119 31.1000 0.0250 0.0000 0.0000 0.0 0.0
C_30071 N_2179104202_66cb119 N_2179104101_42ec585 31.8000 0.0250 0.0000 0.0000 0.0 0.0
C_30074 N_2179105101_22da92f N_2179105102_cf13b96 31.2000 0.0250 0.0000 0.0000 0.0 0.0
C_30075 N_2179105102_cf13b96 N_2179105103_1c6d97c 28.1000 0.0250 0.0000 0.0000 0.0 0.0
C_30076 N_2179105103_1c6d97c N_2179105001_f9bc8c5 29.4000 0.0250 0.0000 0.0000 0.0 0.0
C_30077 N_2179105104_2aa44ce B_2179105001_30077_d46d12c 28.0000 0.0250 0.0000 0.0000 0.0 0.0
C_30078 N_2179105105_131f689 N_2179105104_2aa44ce 9.5000 0.0250 0.0000 0.0000 0.0 0.0
C_30079 N_2179105106_0564b1a N_2179105105_131f689 19.1000 0.0250 0.0000 0.0000 0.0 0.0
C_30085 N_2179106101_7dfad05 N_2179105106_0564b1a 30.0000 0.0250 0.0000 0.0000 0.0 0.0
C_30086 N_2179106102_4385b2f N_2179106101_7dfad05 30.1000 0.0250 0.0000 0.0000 0.0 0.0
C_30087 N_2179106201_134dbef N_2179106102_4385b2f 31.9000 0.0250 0.0000 0.0000 0.0 0.0
C_30088 N_2179106202_b8a50ef N_2179106203_21a0fd9 19.4000 0.0250 0.0000 0.0000 0.0 0.0
C_30089 N_2179106203_21a0fd9 N_2179106201_134dbef 13.1000 0.0250 0.0000 0.0000 0.0 0.0
C_30090 N_2179106204_46cff7d N_2179106202_b8a50ef 13.4000 0.0160 0.0000 0.0000 0.0 0.0
C_30091 N_2179106205_527821e N_2179106204_46cff7d 3.2000 0.0250 0.0000 0.0000 0.0 0.0
C_30092 N_2179106206_ecc9858 N_2179106205_527821e 10.0000 0.0250 0.0000 0.0000 0.0 0.0
C_30093 N_2179106207_7bbe61c N_2179106208_0722dd7 6.4000 0.0250 0.0000 0.0000 0.0 0.0
C_30094 N_2179106208_0722dd7 N_2179106206_ecc9858 23.3000 0.0250 0.0000 0.0000 0.0 0.0
C_30095 N_2179106301_16007ee N_2179106303_fb51bcb 22.9000 0.0160 0.0000 0.0000 0.0 0.0
C_30096 N_2179106302_4f5037c N_2179106305_f940cd0 21.5000 0.0160 0.0000 0.0000 0.0 0.0
C_30097 N_2179106303_fb51bcb N_2179106302_4f5037c 2.3000 0.0160 0.0000 0.0000 0.0 0.0
C_30099 N_2179106304_2b068f3 N_2179106301_16007ee 5.2000 0.0160 0.0000 0.0000 0.0 0.0
C_30100 N_2179106305_f940cd0 N_2179106307_ba4ca7c 5.7000 0.0160 0.0000 0.0000 0.0 0.0
C_30101 N_2179106306_9c5151a N_2179106308_01e0424 6.8000 0.0160 0.0000 0.0000 0.0 0.0
C_30102 N_2179106307_ba4ca7c N_2179106306_9c5151a 21.8000 0.0160 0.0000 0.0000 0.0 0.0
C_30103 N_2179106308_01e0424 N_2179106207_7bbe61c 29.4000 0.0250 0.0000 0.0000 0.0 0.0
C_30104 N_2179106401_4d4b83a N_2179106304_2b068f3 35.9000 0.0160 0.0000 0.0000 0.0 0.0
C_30105 N_2179106402_910040a N_2179106401_4d4b83a 30.0000 0.0160 0.0000 0.0000 0.0 0.0
C_30106 N_2179106403_38a690c N_2179106402_910040a 3.6000 0.0160 0.0000 0.0000 0.0 0.0
C_30107 N_2179106404_b01d871 N_2179106403_38a690c 14.1000 0.0160 0.0000 0.0000 0.0 0.0
C_30108 N_2179106405_2ce00fb N_2179106404_b01d871 1.4000 0.0160 0.0000 0.0000 0.0 0.0
C_30143 N_2179111202_8acbef3 N_2179111203_85c354a 6.1000 0.0250 0.0000 0.0000 0.0 0.0
C_30144 N_2179111203_85c354a N_2179111204_d9de370 19.2000 0.0160 0.0000 0.0000 0.0 0.0
C_30145 N_2179111204_d9de370 N_2179111206_18125e0 11.8000 0.0160 0.0000 0.0000 0.0 0.0
C_30146 N_2179111205_a34325f N_2179111202_8acbef3 31.8000 0.0250 0.0000 0.0000 0.0 0.0
C_30149 N_2179111301_e86fd3c N_2179111302_4b143b7 12.7000 0.0160 0.0000 0.0000 0.0 0.0
C_30150 N_2179111302_4b143b7 N_2179111304_699e7d5 4.8000 0.0250 0.0000 0.0000 0.0 0.0
C_30151 N_2179111303_25055e3 N_2179111301_e86fd3c 8.3000 0.0250 0.0000 0.0000 0.0 0.0
C_30152 N_2179111304_699e7d5 N_2179111205_a34325f 16.9000 0.0250 0.0000 0.0000 0.0 0.0
C_30156 N_2179112301_d6ab719 N_2179111303_25055e3 11.8000 0.0250 0.0000 0.0000 0.0 0.0
C_30157 N_2179112302_d36a78a N_2179112301_d6ab719 25.6000 0.0250 0.0000 0.0000 0.0 0.0
C_30158 N_2179112303_b67b6e2 N_2179112302_d36a78a 9.6000 0.0250 0.0000 0.0000 0.0 0.0
C_30159 N_2179112304_7fbcfe9 N_2179112303_b67b6e2 29.7000 0.0250 0.0000 0.0000 0.0 0.0
C_30160 N_2179112401_d7a1733 N_2179112304_7fbcfe9 5.0000 0.0250 0.0000 0.0000 0.0 0.0
C_30161 N_2179112402_77fc9a5 N_2179112401_d7a1733 17.4000 0.0250 0.0000 0.0000 0.0 0.0
C_30162 N_2179112403_36c8c0d N_2179112402_77fc9a5 4.0000 0.0160 0.0000 0.0000 0.0 0.0
C_30163 N_2179112404_3cbc692 N_2179112403_36c8c0d 12.7000 0.0160 0.0000 0.0000 0.0 0.0
C_30164 N_2179112405_4b3ed11 N_2179112404_3cbc692 21.9000 0.0250 0.0000 0.0000 0.0 0.0
C_30165 N_2179112406_a479edb N_2179112405_4b3ed11 29.9000 0.0250 0.0000 0.0000 0.0 0.0
C_30166 N_2179112501_b69ce4e N_2179112406_a479edb 29.6000 0.0250 0.0000 0.0000 0.0 0.0
C_30167 N_2179112502_5476936 N_2179112501_b69ce4e 15.6000 0.0250 0.0000 0.0000 0.0 0.0
C_30168 N_2179112503_6b994c3 N_2179112502_5476936 16.3000 0.0250 0.0000 0.0000 0.0 0.0
C_30169 N_2179112801_31bb4d3 N_2179112802_5babc87 11.9000 0.0250 0.0000 0.0000 0.0 0.0
C_30170 N_2179112802_5babc87 N_2179112804_c9b5b00 30.8000 0.0250 0.0000 0.0000 0.0 0.0
C_30171 N_2179112803_2c79300 N_2179112801_31bb4d3 19.3000 0.0250 0.0000 0.0000 0.0 0.0
C_30172 N_2179112804_c9b5b00 N_2179112805_5fb349d 18.1000 0.0250 0.0000 0.0000 0.0 0.0
C_30173 N_2179112805_5fb349d N_2179112806_1924711 10.1000 0.0250 0.0000 0.0000 0.0 0.0
C_30174 N_2179112806_1924711 N_2179113801_dc24f1b 30.1000 0.0160 0.0000 0.0000 0.0 0.0
C_30175 N_2179112901_9891601 N_2179112902_1038de3 14.9000 0.0250 0.0000 0.0000 0.0 0.0
C_30176 N_2179112902_1038de3 N_2179112905_9e4f292 19.3000 0.0250 0.0000 0.0000 0.0 0.0
C_30177 N_2179112903_48dc1e8 N_2179112904_dbf49e2 13.4000 0.0250 0.0000 0.0000 0.0 0.0
C_30178 N_2179112904_dbf49e2 N_2179112907_f55bf5a 12.8000 0.0250 0.0000 0.0000 0.0 0.0
C_30179 N_2179112905_9e4f292 N_2179112906_aeb89fd 8.4000 0.0250 0.0000 0.0000 0.0 0.0
C_30180 N_2179112906_aeb89fd N_2179112903_48dc1e8 17.7000 0.0250 0.0000 0.0000 0.0 0.0
C_30181 N_2179112907_f55bf5a N_2179112908_2b7d11d 8.4000 0.0250 0.0000 0.0000 0.0 0.0
C_30182 N_2179112908_2b7d11d N_2179112803_2c79300 25.0000 0.0250 0.0000 0.0000 0.0 0.0
C_30183 N_2179113501_1442163 N_2179113504_3783232 31.8000 0.0250 0.0000 0.0000 0.0 0.0
C_30184 N_2179113502_75ecbe1 N_2179112503_6b994c3 12.3000 0.0250 0.0000 0.0000 0.0 0.0
C_30185 N_2179113503_b0aa6ad N_2179113501_1442163 11.9000 0.0250 0.0000 0.0000 0.0 0.0
C_30186 N_2179113504_3783232 N_2179113502_75ecbe1 17.8000 0.0250 0.0000 0.0000 0.0 0.0
C_30187 N_2179113505_3035a5a N_2179113503_b0aa6ad 17.7000 0.0250 0.0000 0.0000 0.0 0.0
C_30188 N_2179113601_f4217c3 N_2179113505_3035a5a 30.1000 0.0250 0.0000 0.0000 0.0 0.0
C_30189 N_2179113602_85f18d6 N_2179113601_f4217c3 30.4000 0.0250 0.0000 0.0000 0.0 0.0
C_30190 N_2179113603_3f82fd7 N_2179113602_85f18d6 30.0000 0.0250 0.0000 0.0000 0.0 0.0
C_30191 N_2179113701_5c3dfe8 N_2179113704_2c00d02 16.1000 0.0250 0.0000 0.0000 0.0 0.0
C_30192 N_2179113702_e154286 N_2179113701_5c3dfe8 15.5000 0.0250 0.0000 0.0000 0.0 0.0
C_30193 N_2179113703_3485ca0 N_2179113603_3f82fd7 24.7000 0.0250 0.0000 0.0000 0.0 0.0
C_30194 N_2179113704_2c00d02 N_2179113703_3485ca0 5.0000 0.0250 0.0000 0.0000 0.0 0.0
C_30195 N_2179113705_a03d845 N_2179113707_4a82612 6.6000 0.0250 0.0000 0.0000 0.0 0.0
C_30196 N_2179113706_b0bae76 N_2179113702_e154286 30.1000 0.0250 0.0000 0.0000 0.0 0.0
C_30197 N_2179113707_4a82612 N_2179113708_98d8012 8.9000 0.0250 0.0000 0.0000 0.0 0.0
C_30198 N_2179113708_98d8012 N_2179113706_b0bae76 20.3000 0.0250 0.0000 0.0000 0.0 0.0
C_30199 N_2179113801_dc24f1b N_2179113802_dc089b8 10.4000 0.0250 0.0000 0.0000 0.0 0.0
C_30200 N_2179113802_dc089b8 N_2179113705_a03d845 5.3000 0.0250 0.0000 0.0000 0.0 0.0
C_30201 N_2179121001_9796b8c N_2179121002_08ba47a 6.6000 0.0250 0.0000 0.0000 0.0 0.0
C_30202 N_2179121002_08ba47a N_2179121005_a71bf0c 24.3000 0.0250 0.0000 0.0000 0.0 0.0
C_30203 N_2179121003_38bcaae N_2179121004_db0d8e6 4.0000 0.0250 0.0000 0.0000 0.0 0.0
C_30204 N_2179121004_db0d8e6 N_2179121001_9796b8c 30.2000 0.0250 0.0000 0.0000 0.0 0.0
C_30205 N_2179121005_a71bf0c N_2179121006_42ee938 19.0000 0.0250 0.0000 0.0000 0.0 0.0
C_30206 N_2179121006_42ee938 N_2179121007_cc5a684 9.2000 0.0250 0.0000 0.0000 0.0 0.0
C_30207 N_2179121007_cc5a684 N_2179122001_b6949fd 17.1000 0.0250 0.0000 0.0000 0.0 0.0
C_30208 N_2179121101_1ea8ed9 N_2179121102_a409848 4.8000 0.0160 0.0000 0.0000 0.0 0.0
C_30209 N_2179121102_a409848 N_2179121106_900bee2 24.3000 0.0250 0.0000 0.0000 0.0 0.0
C_30210 N_2179121103_eb20fd2 N_2179121101_1ea8ed9 13.6000 0.0250 0.0000 0.0000 0.0 0.0
C_30211 N_2179121104_7d39e0c N_2179121103_eb20fd2 15.9000 0.0250 0.0000 0.0000 0.0 0.0
C_30212 N_2179121105_fa4759d N_2179121104_7d39e0c 4.5000 0.0250 0.0000 0.0000 0.0 0.0
C_30213 N_2179121106_900bee2 N_2179121003_38bcaae 18.2000 0.0250 0.0000 0.0000 0.0 0.0
C_30214 N_2179121107_72fd9b0 N_2179121105_fa4759d 25.6000 0.0250 0.0000 0.0000 0.0 0.0
C_30215 N_2179121108_d1b3a0d N_2179121107_72fd9b0 30.0000 0.0250 0.0000 0.0000 0.0 0.0
C_30216 N_2179121201_522c4fd N_2179121108_d1b3a0d 22.7000 0.0250 0.0000 0.0000 0.0 0.0
C_30217 N_2179121202_21ce95e N_2179121201_522c4fd 7.2000 0.0250 0.0000 0.0000 0.0 0.0
C_30218 N_2179121801_96d5b00 N_2179121802_6f862a0 14.4000 0.0250 0.0000 0.0000 0.0 0.0
C_30219 N_2179121802_6f862a0 N_2179122701_f9ae5b3 16.4000 0.0250 0.0000 0.0000 0.0 0.0
C_30220 N_2179122001_b6949fd N_2179122002_a99fa4c 14.7000 0.0250 0.0000 0.0000 0.0 0.0
C_30221 N_2179122002_a99fa4c N_2179122003_98e2015 24.0000 0.0250 0.0000 0.0000 0.0 0.0
C_30222 N_2179122003_98e2015 N_2179112901_9891601 6.0000 0.0250 0.0000 0.0000 0.0 0.0
C_30223 N_2179122201_dc8b1e1 N_2179122202_4e26e23 6.7000 0.0160 0.0000 0.0000 0.0 0.0
C_30224 N_2179122202_4e26e23 N_2179122203_23f4d6d 1.8000 0.0250 0.0000 0.0000 0.0 0.0
C_30225 N_2179122203_23f4d6d N_2179122205_d10d34b 21.9000 0.0250 0.0000 0.0000 0.0 0.0
C_30226 N_2179122204_e0ad1d9 N_2179121202_21ce95e 34.5000 0.0250 0.0000 0.0000 0.0 0.0
C_30227 N_2179122205_d10d34b N_2179122207_73301a1 5.1000 0.0250 0.0000 0.0000 0.0 0.0
C_30228 N_2179122206_c61fa2e N_2179122204_e0ad1d9 25.5000 0.0250 0.0000 0.0000 0.0 0.0
C_30229 N_2179122207_73301a1 N_2179122206_c61fa2e 3.9000 0.0250 0.0000 0.0000 0.0 0.0
C_30230 N_2179122301_6ecedad N_2179122303_bc77d5d 5.7000 0.0250 0.0000 0.0000 0.0 0.0
C_30231 N_2179122302_ea3a59e N_2179122301_6ecedad 18.2000 0.0250 0.0000 0.0000 0.0 0.0
C_30232 N_2179122303_bc77d5d N_2179122201_dc8b1e1 21.7000 0.0250 0.0000 0.0000 0.0 0.0
C_30233 N_2179122304_0a2ee08 N_2179122302_ea3a59e 6.2000 0.0250 0.0000 0.0000 0.0 0.0
C_30234 N_2179122305_4fc0749 N_2179122304_0a2ee08 19.3000 0.0250 0.0000 0.0000 0.0 0.0
C_30235 N_2179122306_ac2e550 N_2179122305_4fc0749 10.5000 0.0250 0.0000 0.0000 0.0 0.0
C_30236 N_2179122307_ee57d73 N_2179122306_ac2e550 14.9000 0.0250 0.0000 0.0000 0.0 0.0
C_30237 N_2179122308_f3d01fa N_2179122307_ee57d73 10.6000 0.0250 0.0000 0.0000 0.0 0.0
C_30238 N_2179122309_e478221 N_2179122308_f3d01fa 5.5000 0.0160 0.0000 0.0000 0.0 0.0
C_30239 N_2179122401_41b983e N_2179122309_e478221 29.2000 0.0250 0.0000 0.0000 0.0 0.0
C_30240 N_2179122402_4bba9c2 N_2179122403_3435def 16.6000 0.0250 0.0000 0.0000 0.0 0.0
C_30241 N_2179122403_3435def N_2179122404_af367b7 3.9000 0.0250 0.0000 0.0290 0.0 0.0
C_30242 N_2179122404_af367b7 N_2179122401_41b983e 17.9000 0.0160 0.0000 0.0000 0.0 0.0
C_30243 N_2179122405_0cca5c7 N_2179122404_af367b7 3.9000 0.0250 0.0000 0.0000 0.0 0.0
C_30244 N_2179122406_aec1330 N_2179122405_0cca5c7 10.1000 0.0160 0.0000 0.0000 0.0 0.0
C_30245 N_2179122407_278f2a3 N_2179122406_aec1330 10.1000 0.0250 0.0000 0.0000 0.0 0.0
C_30246 N_2179122408_c67977b N_2179122407_278f2a3 34.8000 0.0250 0.0000 0.0000 0.0 0.0
C_30247 N_2179122501_08f92ea N_2179122506_0df651e 41.0000 0.0250 0.0000 0.0000 0.0 0.0
C_30248 N_2179122502_c087098 N_2179122402_4bba9c2 51.1000 0.0250 0.0000 0.0000 0.0 0.0
C_30249 N_2179122503_51a70a1 N_2179122502_c087098 9.6000 0.0160 0.0000 0.0000 0.0 0.0
C_30250 N_2179122504_5e64af1 N_2179122503_51a70a1 36.3000 0.0250 0.0000 0.0000 0.0 0.0
C_30251 N_2179122505_ff3bb5c N_2179122504_5e64af1 6.0000 0.0160 0.0000 0.0000 0.0 0.0
C_30252 N_2179122506_0df651e N_2179122507_8f47339 4.5000 0.0250 0.0000 0.0000 0.0 0.0
C_30253 N_2179122507_8f47339 N_2179122505_ff3bb5c 4.2000 0.0250 0.0000 0.0000 0.0 0.0
C_30254 N_2179122601_082a161 N_2179122602_e6c3b0d 10.2000 0.0250 0.0000 0.0000 0.0 0.0
C_30255 N_2179122602_e6c3b0d N_2179122603_f099f2a 12.4000 0.0250 0.0000 0.0000 0.0 0.0
C_30256 N_2179122603_f099f2a N_2179122604_ee97c23 13.6000 0.0160 0.0000 0.0000 0.0 0.0
C_30257 N_2179122604_ee97c23 N_2179122605_ae0d9f6 4.3000 0.0160 0.0000 0.0000 0.0 0.0
C_30258 N_2179122605_ae0d9f6 N_2179122606_68c52f4 14.4000 0.0250 0.0000 0.0000 0.0 0.0
C_30259 N_2179122606_68c52f4 N_2179122607_923fb0a 5.4000 0.0250 0.0000 0.0000 0.0 0.0
C_30260 N_2179122607_923fb0a N_2179122608_8c6c982 5.7000 0.0250 0.0000 0.0000 0.0 0.0
C_30261 N_2179122608_8c6c982 N_2179122501_08f92ea 66.9000 0.0250 0.0000 0.0000 0.0 0.0
C_30262 N_2179122701_f9ae5b3 N_2179122702_e857d6b 50.0000 0.0250 0.0000 0.0000 0.0 0.0
C_30263 N_2179122702_e857d6b N_2179122703_c72ffe8 10.5000 0.0160 0.0000 0.0000 0.0 0.0
C_30264 N_2179122703_c72ffe8 N_2179122704_11e6925 34.9000 0.0250 0.0000 0.0000 0.0 0.0
C_30265 N_2179122704_11e6925 N_2179122601_082a161 16.2000 0.0250 0.0000 0.0000 0.0 0.0
C_30266 N_2179122801_0d81e20 N_2179121801_96d5b00 21.1000 0.0250 0.0000 0.0000 0.0 0.0
C_30267 N_2179122802_879b661 N_2179122801_0d81e20 5.5000 0.0160 0.0000 0.0000 0.0 0.0
C_30268 N_2179122803_c77ee3e N_2179122802_879b661 25.4000 0.0250 0.0000 0.0000 0.0 0.0
C_30269 N_2179122804_6f40c9d N_2179122803_c77ee3e 4.8000 0.0250 0.0000 0.0000 0.0 0.0
C_30270 N_2179122805_086ba1e N_2179122804_6f40c9d 15.5000 0.0250 0.0000 0.0000 0.0 0.0
C_30271 N_2179122901_23ce81b N_2179122805_086ba1e 67.8000 0.0250 0.0000 0.0000 0.0 0.0
C_30272 N_2179122902_7e5a370 N_2179122901_23ce81b 9.2000 0.0250 0.0000 0.0000 0.0 0.0
C_30273 N_2179122903_25c154d N_2179122902_7e5a370 10.6000 0.0250 0.0000 0.0000 0.0 0.0
C_30274 N_2179122904_20aa30a N_2179122903_25c154d 7.9000 0.0250 0.0000 0.0000 0.0 0.0
C_30275 N_2179122905_7719c29 N_2179122904_20aa30a 12.7000 0.0250 0.0000 0.0000 0.0 0.0
C_30276 N_2179122906_0597c06 N_2179122905_7719c29 16.4000 0.0160 0.0000 0.0000 0.0 0.0
C_30277 N_2179123401_127d275 N_2179122408_c67977b 13.0000 0.0250 0.0000 0.0000 0.0 0.0
C_30278 N_2179123402_f5085a3 N_2179123401_127d275 12.4000 0.0250 0.0000 0.0000 0.0 0.0
C_30279 N_2179123403_cc8c6eb N_2179123402_f5085a3 35.8000 0.0250 0.0000 0.0000 0.0 0.0
C_30280 N_2179123404_f19692b N_2179123406_6aba0b4 11.1000 0.0250 0.0000 0.0000 0.0 0.0
C_30281 N_2179123405_a067f68 N_2179123404_f19692b 11.0000 0.0250 0.0000 0.0000 0.0 0.0
C_30282 N_2179123406_6aba0b4 N_2179123403_cc8c6eb 10.3000 0.0250 0.0000 0.0000 0.0 0.0
C_30283 N_2179123501_964097f N_2179123505_654df97 15.1000 0.0250 0.0000 0.0000 0.0 0.0
C_30284 N_2179123502_0f0b1a4 N_2179123501_964097f 8.1000 0.0250 0.0000 0.0000 0.0 0.0
C_30285 N_2179123503_6b2cfe7 N_2179123405_a067f68 20.0000 0.0250 0.0000 0.0000 0.0 0.0
C_30286 N_2179123504_58e1d42 N_2179123502_0f0b1a4 8.3000 0.0250 0.0000 0.0000 0.0 0.0
C_30287 N_2179123505_654df97 N_2179123507_5a914f8 10.0000 0.0250 0.0000 0.0000 0.0 0.0
C_30288 N_2179123506_d1dec56 N_2179123503_6b2cfe7 18.8000 0.0250 0.0000 0.0000 0.0 0.0
C_30289 N_2179123507_5a914f8 N_2179123508_9898f07 4.4000 0.0250 0.0000 0.0000 0.0 0.0
C_30290 N_2179123508_9898f07 N_2179123509_b608308 4.1000 0.0250 0.0000 0.0000 0.0 0.0
C_30291 N_2179123509_b608308 N_2179123506_d1dec56 7.2000 0.0160 0.0000 0.0000 0.0 0.0
C_30292 N_2179123510_a9cc457 N_2179123504_58e1d42 16.7000 0.0250 0.0000 0.0000 0.0 0.0
C_30293 N_2179123511_cd62509 N_2179123510_a9cc457 5.9000 0.0250 0.0000 0.0000 0.0 0.0
C_30294 N_2179123601_1be7726 N_2179123511_cd62509 22.2000 0.0250 0.0000 0.0000 0.0 0.0
C_30295 N_2179123602_610abc5 N_2179123601_1be7726 7.8000 0.0250 0.0000 0.0000 0.0 0.0
C_30296 N_2179123603_88457ba N_2179123602_610abc5 17.9000 0.0250 0.0000 0.0000 0.0 0.0
C_30297 N_2179123604_5bc05d7 N_2179123603_88457ba 2.1000 0.0250 0.0000 0.0000 0.0 0.0
C_30298 N_2179123605_a2a0a1e N_2179123604_5bc05d7 1.1000 0.0250 0.0000 0.0000 0.0 0.0
C_30299 N_2179123606_265a537 N_2179123609_f6128d9 19.3000 0.0250 0.0000 0.0000 0.0 0.0
C_30300 N_2179123607_362b212 N_2179123606_265a537 3.4000 0.0250 0.0000 0.0000 0.0 0.0
C_30301 N_2179123608_843755d N_2179123605_a2a0a1e 16.9000 0.0250 0.0000 0.0000 0.0 0.0
C_30302 N_2179123609_f6128d9 N_2179124602_3dd5a70 6.6000 0.0250 0.0000 0.0000 0.0 0.0
C_30303 N_2179124601_efa2b91 N_2179123607_362b212 9.8000 0.0250 0.0000 0.0000 0.0 0.0
C_30304 N_2179124602_3dd5a70 N_2179123608_843755d 13.1000 0.0250 0.0000 0.0000 0.0 0.0
C_30305 N_2179124603_4e1e5c6 N_2179124601_efa2b91 11.9000 0.0250 0.0000 0.0000 0.0 0.0
C_30306 N_2179124604_6d0ae75 N_2179124603_4e1e5c6 21.7000 0.0250 0.0000 0.0000 0.0 0.0
C_30307 N_2179124605_6af4249 N_2179124604_6d0ae75 20.3000 0.0250 0.0000 0.0000 0.0 0.0
C_30308 N_2179124701_3fd812e N_2179124605_6af4249 2.4000 0.0250 0.0000 0.0000 0.0 0.0
C_30309 N_2179124702_c77f655 N_2179124704_3806966 30.3000 0.0250 0.0000 0.0000 0.0 0.0
C_30310 N_2179124703_9fa2fca N_2179124701_3fd812e 11.9000 0.0160 0.0000 0.0000 0.0 0.0
C_30311 N_2179124704_3806966 N_2179124705_7676681 15.5000 0.0250 0.0000 0.0000 0.0 0.0
C_30312 N_2179124705_7676681 N_2179124706_5fe652f 15.4000 0.0250 0.0000 0.0000 0.0 0.0
C_30313 N_2179124706_5fe652f N_2179124703_9fa2fca 9.2000 0.0250 0.0000 0.0000 0.0 0.0
C_30314 N_2179124801_2260c15 N_2179124803_a5469cf 11.2000 0.0250 0.0000 0.0000 0.0 0.0
C_30315 N_2179124802_30baaf0 N_2179124801_2260c15 10.6000 0.0250 0.0000 0.0000 0.0 0.0
C_30316 N_2179124803_a5469cf N_2179124702_c77f655 29.7000 0.0250 0.0000 0.0000 0.0 0.0
C_30317 N_2179124804_67d1faf N_2179124806_b91849b 20.1000 0.0250 0.0000 0.0000 0.0 0.0
C_30318 N_2179124805_caf46d4 N_2179124802_30baaf0 15.9000 0.0250 0.0000 0.0000 0.0 0.0
C_30319 N_2179124806_b91849b N_2179124805_caf46d4 11.1000 0.0250 0.0000 0.0000 0.0 0.0
C_30320 N_2179124807_25d5cdd N_2179124804_67d1faf 19.6000 0.0250 0.0000 0.0000 0.0 0.0
C_30321 N_2179124808_d2e1ed6 N_2179124807_25d5cdd 10.7000 0.0250 0.0000 0.0000 0.0 0.0
C_30322 N_2179124901_305e835 N_2179124808_d2e1ed6 33.0000 0.0250 0.0000 0.0000 0.0 0.0
C_30323 N_2179124902_2206429 N_2179124901_305e835 24.5000 0.0250 0.0000 0.0000 0.0 0.0
C_30324 N_2179124903_2b68d53 N_2179124904_61a61a3 5.7000 0.0250 0.0000 0.0000 0.0 0.0
C_30325 N_2179124904_61a61a3 N_2179124905_7f5e8c1 20.2000 0.0160 0.0000 0.0000 0.0 0.0
C_30326 N_2179124905_7f5e8c1 N_2179124902_2206429 9.2000 0.0250 0.0000 0.0000 0.0 0.0
C_30327 N_2179130501_68fb310 N_2178139601_289c84b 86.4000 0.0160 0.0000 0.0000 0.0 0.0
C_30328 N_2179130601_a34c052 N_2179130501_68fb310 34.6000 0.0160 0.0000 0.0000 0.0 0.0
C_30329 N_2179130602_fa94698 N_2179130601_a34c052 35.8000 0.0160 0.0000 0.0000 0.0 0.0
C_30330 N_2179132001_9327c47 N_2179122906_0597c06 10.4000 0.0250 0.0000 0.0000 0.0 0.0
C_30331 N_2179132002_d36fca0 N_2179132001_9327c47 20.4000 0.0250 0.0000 0.0000 0.0 0.0
C_30332 N_2179132003_f19a01e N_2179132002_d36fca0 9.8000 0.0250 0.0000 0.0000 0.0 0.0
C_30333 N_2179132004_56a4356 N_2179132003_f19a01e 5.8000 0.0250 0.0000 0.0000 0.0 0.0
C_30334 N_2179134001_f96ca89 N_2179134003_00a60a0 18.6000 0.0250 0.0000 0.0000 0.0 0.0
C_30335 N_2179134002_1b5030c N_2179134001_f96ca89 8.0000 0.0250 0.0000 0.0000 0.0 0.0
C_30336 N_2179134003_00a60a0 N_2179134004_f5a7bf3 10.4000 0.0250 0.0000 0.0000 0.0 0.0
C_30337 N_2179134004_f5a7bf3 N_2179134005_ccd252a 26.8000 0.0250 0.0000 0.0000 0.0 0.0
C_30338 N_2179134005_ccd252a N_2179134006_37b9ecf 30.3000 0.0250 0.0000 0.0000 0.0 0.0
C_30339 N_2179134006_37b9ecf N_2179124903_2b68d53 29.6000 0.0250 0.0000 0.0000 0.0 0.0
C_30340 N_2179134101_84dda8f N_2179134102_aa0fcec 28.5000 0.0250 0.0000 0.0000 0.0 0.0
C_30341 N_2179134102_aa0fcec N_2179134002_1b5030c 22.3000 0.0250 0.0000 0.0000 0.0 0.0
C_30342 N_2179134103_ef7e119 N_2179134101_84dda8f 9.1000 0.0250 0.0000 0.0000 0.0 0.0
C_30343 N_2179134104_4872a21 N_2179134103_ef7e119 21.5000 0.0250 0.0000 0.0000 0.0 0.0
C_30344 N_2179134201_8ea02ee N_2179134104_4872a21 31.0000 0.0250 0.0000 0.0000 0.0 0.0
C_30345 N_2179134202_ff894cb N_2179134201_8ea02ee 25.8000 0.0250 0.0000 0.0000 0.0 0.0
C_30346 N_2179135201_977ce8f N_2179134202_ff894cb 19.9000 0.0250 0.0000 0.0000 0.0 0.0
C_30347 N_2179135202_b7da7ba N_2179135201_977ce8f 15.9000 0.0250 0.0000 0.0000 0.0 0.0
C_30348 N_2179135203_b146dee N_2179135202_b7da7ba 23.8000 0.0250 0.0000 0.0000 0.0 0.0
C_30349 N_2179135204_2ff689a N_2179135203_b146dee 29.8000 0.0250 0.0000 0.0000 0.0 0.0
C_30350 N_2179135301_cbd9ba8 N_2179135204_2ff689a 17.0000 0.0250 0.0000 0.0000 0.0 0.0
C_30351 N_2179135302_734b229 N_2179135301_cbd9ba8 12.8000 0.0250 0.0000 0.0000 0.0 0.0
C_30352 N_2179135303_2568f40 N_2179135302_734b229 29.8000 0.0250 0.0000 0.0000 0.0 0.0
C_30353 N_2179135304_3108969 N_2179135303_2568f40 30.0000 0.0250 0.0000 0.0000 0.0 0.0
C_30354 N_2179135305_bd8d741 N_2179135306_ca86e62 19.6000 0.0250 0.0000 0.0000 0.0 0.0
C_30355 N_2179135306_ca86e62 N_2179135304_3108969 9.8000 0.0250 0.0000 0.0000 0.0 0.0
C_30356 N_2179135401_9ccfd01 N_2179135305_bd8d741 9.5000 0.0250 0.0000 0.0000 0.0 0.0
C_30357 N_2179140701_a4903a1 N_2178149701_35cfe2a 94.3000 0.0160 0.0000 0.0000 0.0 0.0
C_30358 N_2179141601_f5fa501 N_2179141701_02d9717 62.0000 0.0160 0.0000 0.0000 0.0 0.0
C_30359 N_2179141701_02d9717 N_2179140701_a4903a1 102.6000 0.0160 0.0000 0.0000 0.0 0.0

[XSECTIONS]
C_18683 RECT_CLOSED 1.2500 1.2500 0.0 0.0 1
C_18684 RECT_CLOSED 1.2500 1.2500 0.0 0.0 1
C_18685 RECT_CLOSED 1.2500 1.2500 0.0 0.0 1
C_18686 RECT_CLOSED 1.2500 1.2500 0.0 0.0 1
C_18688 RECT_CLOSED 1.2500 1.2500 0.0 0.0 1
C_18689 RECT_CLOSED 1.2500 1.2500 0.0 0.0 1
C_18690 RECT_CLOSED 1.2500 1.2500 0.0 0.0 1
C_18691 RECT_CLOSED 1.2500 1.2500 0.0 0.0 1
C_18692 RECT_CLOSED 1.2500 1.2500 0.0 0.0 1
C_18693 RECT_CLOSED 1.2500 1.2500 0.0 0.0 1
C_18694 RECT_CLOSED 1.2500 1.2500 0.0 0.0 1
C_18695 RECT_CLOSED 1.7500 1.7500 0.0 0.0 1
C_18696 RECT_CLOSED 1.2500 1.2500 0.0 0.0 1
C_18697 RECT_CLOSED 1.7500 1.7500 0.0 0.0 1
C_18698 RECT_CLOSED 1.2500 1.2500 0.0 0.0 1
C_18699 RECT_CLOSED 1.2500 1.2500 0.0 0.0 1
C_18712 RECT_CLOSED 1.7500 1.7500 0.0 0.0 1
C_18713 RECT_CLOSED 1.7500 1.7500 0.0 0.0 1
C_18717 RECT_CLOSED 1.7500 1.7500 0.0 0.0 1
C_18718 RECT_CLOSED 1.7500 1.7500 0.0 0.0 1
C_18719 RECT_CLOSED 1.7500 1.7500 0.0 0.0 1
C_18720 RECT_CLOSED 1.7500 1.7500 0.0 0.0 1
C_18721 RECT_CLOSED 2.0000 2.0000 0.0 0.0 1
C_18722 RECT_CLOSED 2.0000 2.0000 0.0 0.0 1
C_18727 RECT_CLOSED 2.0000 2.0000 0.0 0.0 1
C_18728 RECT_CLOSED 2.0000 2.0000 0.0 0.0 1
C_18729 RECT_CLOSED 2.0000 2.0000 0.0 0.0 1
C_18730 RECT_CLOSED 2.0000 2.0000 0.0 0.0 1
C_18731 RECT_CLOSED 2.0000 2.0000 0.0 0.0 1
C_18732 CIRCULAR 0.6000 0.6000 0.0 0.0 1
C_18733 CIRCULAR 0.6000 0.6000 0.0 0.0 1
C_18734 RECT_CLOSED 2.0000 2.0000 0.0 0.0 1
C_18735 RECT_CLOSED 2.0000 2.0000 0.0 0.0 1
C_21411 CIRCULAR 0.4500 0.4500 0.0 0.0 1
C_21414 CIRCULAR 0.4500 0.4500 0.0 0.0 1
C_21416 CIRCULAR 0.4500 0.4500 0.0 0.0 1
C_21417 CIRCULAR 0.4500 0.4500 0.0 0.0 1
C_21447 RECT_CLOSED 1.5300 0.9500 0.0 0.0 1
C_21451 RECT_CLOSED 1.5300 0.9500 0.0 0.0 1
C_21456 CIRCULAR 0.4500 0.4500 0.0 0.0 1
C_21457 CIRCULAR 0.4500 0.4500 0.0 0.0 1
C_21458 CIRCULAR 0.4500 0.4500 0.0 0.0 1
C_21459 CIRCULAR 0.4500 0.4500 0.0 0.0 1
C_21460 CIRCULAR 0.4500 0.4500 0.0 0.0 1
C_21461 RECT_CLOSED 0.9000 1.2000 0.0 0.0 1
C_21462 RECT_CLOSED 0.9000 1.2000 0.0 0.0 1
C_21463 RECT_CLOSED 0.9000 1.2000 0.0 0.0 1
C_21464 RECT_CLOSED 0.9000 1.2000 0.0 0.0 1
C_21466 RECT_CLOSED 0.9000 1.2000 0.0 0.0 1
C_21468 RECT_CLOSED 0.9000 1.2000 0.0 0.0 1
C_21469 CIRCULAR 0.5400 0.5400 0.0 0.0 1
C_21470 RECT_CLOSED 1.5300 0.9500 0.0 0.0 1
C_21472 CIRCULAR 0.5400 0.5400 0.0 0.0 1
C_21528 CIRCULAR 1.8000 1.8000 0.0 0.0 1
C_21529 CIRCULAR 1.8000 1.8000 0.0 0.0 1
C_21530 ARCH 1.5000 1.8000 0.0 0.0 1
C_21534 ARCH 1.5000 1.8000 0.0 0.0 1
C_21535 ARCH 1.5000 1.8000 0.0 0.0 1
C_21536 ARCH 1.5000 1.8000 0.0 0.0 1
C_21537 RECT_CLOSED 1.5300 0.9500 0.0 0.0 1
C_21538 CIRCULAR 1.0000 1.0000 0.0 0.0 1
C_21539 CIRCULAR 1.0000 1.0000 0.0 0.0 1
C_21540 CIRCULAR 1.0000 1.0000 0.0 0.0 1
C_21542 CIRCULAR 1.0000 1.0000 0.0 0.0 1
C_21543 RECT_CLOSED 1.5300 0.9500 0.0 0.0 1
C_21544 CIRCULAR 1.0000 1.0000 0.0 0.0 1
C_21545 CIRCULAR 1.0000 1.0000 0.0 0.0 1
C_21546 CIRCULAR 1.0000 1.0000 0.0 0.0 1
C_21547 CIRCULAR 1.0000 1.0000 0.0 0.0 1
C_21548 CIRCULAR 1.0000 1.0000 0.0 0.0 1
C_21549 CIRCULAR 1.0000 1.0000 0.0 0.0 1
C_21551 CIRCULAR 1.0000 1.0000 0.0 0.0 1
C_21552 ARCH 1.5000 1.8000 0.0 0.0 1
C_21554 CIRCULAR 1.0000 1.0000 0.0 0.0 1
C_21555 ARCH 1.5000 1.8000 0.0 0.0 1
C_21556 CIRCULAR 1.0000 1.0000 0.0 0.0 1
C_21558 CIRCULAR 1.0000 1.0000 0.0 0.0 1
C_21559 CIRCULAR 1.0000 1.0000 0.0 0.0 1
C_21560 ARCH 1.5000 1.8000 0.0 0.0 1
C_21564 ARCH 1.5000 1.8000 0.0 0.0 1
C_21594 RECT_CLOSED 2.4000 3.0000 0.0 0.0 1
C_21595 RECT_CLOSED 2.4000 3.0000 0.0 0.0 1
C_21602 CIRCULAR 1.8000 1.8000 0.0 0.0 1
C_21603 RECT_CLOSED 2.4000 3.0000 0.0 0.0 1
C_21604 RECT_CLOSED 2.4000 3.0000 0.0 0.0 1
C_21605 RECT_CLOSED 2.4000 3.0000 0.0 0.0 1
C_21606 RECT_CLOSED 2.4000 3.0000 0.0 0.0 1
C_21607 RECT_CLOSED 2.4000 3.0000 0.0 0.0 1
C_21608 RECT_CLOSED 2.4000 3.0000 0.0 0.0 1
C_21609 RECT_CLOSED 2.4000 3.0000 0.0 0.0 1
C_21610 RECT_CLOSED 2.4000 3.0000 0.0 0.0 1
C_21612 RECT_CLOSED 2.4000 3.0000 0.0 0.0 1
C_21613 RECT_CLOSED 2.4000 3.0000 0.0 0.0 1
C_21614 CIRCULAR 1.8000 1.8000 0.0 0.0 1
C_21615 RECT_CLOSED 2.4000 3.0000 0.0 0.0 1
C_21616 RECT_CLOSED 2.4000 3.0000 0.0 0.0 1
C_21617 ARCH 1.5000 1.8000 0.0 0.0 1
C_21618 ARCH 1.5000 1.8000 0.0 0.0 1
C_21644 RECT_CLOSED 2.4000 3.0000 0.0 0.0 1
C_21645 RECT_CLOSED 2.4000 3.0000 0.0 0.0 1
C_21646 RECT_CLOSED 2.4000 3.0000 0.0 0.0 1
C_21647 RECT_CLOSED 2.4000 3.0000 0.0 0.0 1
C_21648 RECT_CLOSED 2.4000 3.0000 0.0 0.0 1
C_21864 RECT_OPEN 0.3000 0.3000 0.0 0.0 1
C_21865 RECT_OPEN 0.3000 0.3000 0.0 0.0 1
C_21884 CIRCULAR 0.6000 0.6000 0.0 0.0 1
C_21885 CIRCULAR 0.6000 0.6000 0.0 0.0 1
C_21886 RECT_OPEN 0.3000 0.3000 0.0 0.0 1
C_21887 RECT_OPEN 0.3000 0.3000 0.0 0.0 1
C_21888 CIRCULAR 0.9000 0.9000 0.0 0.0 1
C_21889 CIRCULAR 0.9000 0.9000 0.0 0.0 1
C_21890 RECT_OPEN 0.3000 0.3000 0.0 0.0 1
C_21891 RECT_OPEN 0.3000 0.3000 0.0 0.0 1
C_21892 CIRCULAR 0.9000 0.9000 0.0 0.0 1
C_21895 CIRCULAR 0.9000 0.9000 0.0 0.0 1
C_21897 CIRCULAR 0.4500 0.4500 0.0 0.0 1
C_21899 CIRCULAR 0.9000 0.9000 0.0 0.0 1
C_21900 CIRCULAR 0.6000 0.6000 0.0 0.0 1
C_21901 CIRCULAR 0.3000 0.3000 0.0 0.0 1
C_21902 CIRCULAR 0.3000 0.3000 0.0 0.0 1
C_21916 CIRCULAR 1.2000 1.2000 0.0 0.0 1
C_21924 CIRCULAR 1.2000 1.2000 0.0 0.0 1
C_21925 CIRCULAR 1.6000 1.6000 0.0 0.0 1
C_21926 CIRCULAR 1.6000 1.6000 0.0 0.0 1
C_21927 CIRCULAR 1.6000 1.6000 0.0 0.0 1
C_21928 CIRCULAR 1.6000 1.6000 0.0 0.0 1
C_21932 CIRCULAR 1.6000 1.6000 0.0 0.0 1
C_21934 CIRCULAR 0.3000 0.3000 0.0 0.0 1
C_21935 CIRCULAR 0.9000 0.9000 0.0 0.0 1
C_21936 RECT_CLOSED 1.2000 3.0000 0.0 0.0 1
C_21937 RECT_OPEN 1.0000 2.0000 0.0 0.0 1
C_21938 CIRCULAR 1.2000 1.2000 0.0 0.0 1
C_21939 RECT_CLOSED 1.2000 3.0000 0.0 0.0 1
C_21940 CIRCULAR 1.2000 1.2000 0.0 0.0 1
C_21941 RECT_CLOSED 1.2000 3.0000 0.0 0.0 1
C_21942 CIRCULAR 0.3000 0.3000 0.0 0.0 1
C_21943 RECT_CLOSED 1.2000 3.0000 0.0 0.0 1
C_21944 CIRCULAR 1.2000 1.2000 0.0 0.0 1
C_21945 RECT_OPEN 1.0000 0.7000 0.0 0.0 1
C_21946 RECT_CLOSED 1.2000 3.0000 0.0 0.0 1
C_21947 CIRCULAR 1.2000 1.2000 0.0 0.0 1
C_21948 RECT_CLOSED 1.2000 3.0000 0.0 0.0 1
C_21949 CIRCULAR 1.2000 1.2000 0.0 0.0 1
C_21950 RECT_CLOSED 1.2000 3.0000 0.0 0.0 1
C_21951 RECT_OPEN 0.3000 0.3000 0.0 0.0 1
C_21952 RECT_OPEN 0.3000 0.3000 0.0 0.0 1
C_21953 CIRCULAR 0.9000 0.9000 0.0 0.0 1
C_21954 RECT_OPEN 0.3000 0.3000 0.0 0.0 1
C_21955 RECT_OPEN 0.3000 0.3000 0.0 0.0 1
C_21956 CIRCULAR 0.9000 0.9000 0.0 0.0 1
C_21957 RECT_OPEN 0.3000 0.3000 0.0 0.0 1
C_21958 RECT_OPEN 0.3000 0.3000 0.0 0.0 1
C_21959 CIRCULAR 0.9000 0.9000 0.0 0.0 1
C_21960 RECT_CLOSED 1.2000 3.0000 0.0 0.0 1
C_21961 CIRCULAR 0.6000 0.6000 0.0 0.0 1
C_21962 RECT_OPEN 0.3000 0.3000 0.0 0.0 1
C_21963 RECT_OPEN 0.3000 0.3000 0.0 0.0 1
C_21964 CIRCULAR 0.6000 0.6000 0.0 0.0 1
C_21965 CIRCULAR 0.6000 0.6000 0.0 0.0 1
C_21966 CIRCULAR 0.7500 0.7500 0.0 0.0 1
C_22001 CIRCULAR 1.6000 1.6000 0.0 0.0 1
C_22002 CIRCULAR 1.6000 1.6000 0.0 0.0 1
C_22003 CIRCULAR 1.6000 1.6000 0.0 0.0 1
C_22004 CIRCULAR 1.6000 1.6000 0.0 0.0 1
C_22009 RECT_CLOSED 1.2000 3.0000 0.0 0.0 1
C_22010 CIRCULAR 1.6000 1.6000 0.0 0.0 1
C_22012 CIRCULAR 1.6000 1.6000 0.0 0.0 1
C_22013 CIRCULAR 1.6000 1.6000 0.0 0.0 1
C_22014 CIRCULAR 1.6000 1.6000 0.0 0.0 1
C_22015 CIRCULAR 1.6000 1.6000 0.0 0.0 1
C_22019 CIRCULAR 0.7500 0.7500 0.0 0.0 1
C_22020 CIRCULAR 1.2000 1.2000 0.0 0.0 1
C_22021 RECT_CLOSED 1.2000 3.0000 0.0 0.0 1
C_22022 CIRCULAR 1.2000 1.2000 0.0 0.0 1
C_22023 CIRCULAR 0.7500 0.7500 0.0 0.0 1
C_22024 CIRCULAR 1.2000 1.2000 0.0 0.0 1
C_22025 CIRCULAR 0.3000 0.3000 0.0 0.0 1
C_22026 RECT_CLOSED 1.2000 3.0000 0.0 0.0 1
C_22027 CIRCULAR 1.2000 1.2000 0.0 0.0 1
C_22028 RECT_CLOSED 1.2000 3.0000 0.0 0.0 1
C_22029 CIRCULAR 1.2000 1.2000 0.0 0.0 1
C_22030 CIRCULAR 1.2000 1.2000 0.0 0.0 1
C_22031 RECT_CLOSED 1.2000 3.0000 0.0 0.0 1
C_22032 CIRCULAR 1.2000 1.2000 0.0 0.0 1
C_22033 RECT_CLOSED 1.2000 3.0000 0.0 0.0 1
C_22076 CIRCULAR 1.2000 1.2000 0.0 0.0 1
C_22077 RECT_CLOSED 1.2000 3.0000 0.0 0.0 1
C_22078 CIRCULAR 1.2000 1.2000 0.0 0.0 1
C_22142 CIRCULAR 0.8000 0.8000 0.0 0.0 1
C_22143 CIRCULAR 0.8000 0.8000 0.0 0.0 1
C_22144 CIRCULAR 0.8000 0.8000 0.0 0.0 1
C_22146 RECT_CLOSED 2.0000 2.0000 0.0 0.0 1
C_22147 RECT_CLOSED 2.0000 2.0000 0.0 0.0 1
C_22148 RECT_CLOSED 1.7500 1.7500 0.0 0.0 1
C_22149 CIRCULAR 0.8000 0.8000 0.0 0.0 1
C_22150 CIRCULAR 0.8000 0.8000 0.0 0.0 1
C_22151 CIRCULAR 0.8000 0.8000 0.0 0.0 1
C_22152 RECT_CLOSED 1.7500 1.7500 0.0 0.0 1
C_22153 RECT_CLOSED 1.7500 1.7500 0.0 0.0 1
C_22156 CIRCULAR 0.8000 0.8000 0.0 0.0 1
C_22157 CIRCULAR 1.8000 1.8000 0.0 0.0 1
C_22158 CIRCULAR 0.6000 0.6000 0.0 0.0 1
C_22159 CIRCULAR 0.6000 0.6000 0.0 0.0 1
C_22160 RECT_CLOSED 1.7500 1.7500 0.0 0.0 1
C_22161 RECT_CLOSED 1.7500 1.7500 0.0 0.0 1
C_22165 CIRCULAR 1.8000 1.8000 0.0 0.0 1
C_22167 CIRCULAR 1.8000 1.8000 0.0 0.0 1
C_22168 CIRCULAR 1.8000 1.8000 0.0 0.0 1
C_22169 CIRCULAR 1.8000 1.8000 0.0 0.0 1
C_22170 CIRCULAR 0.8000 0.8000 0.0 0.0 1
C_22171 RECT_CLOSED 1.7500 1.7500 0.0 0.0 1
C_22172 RECT_CLOSED 1.7500 1.7500 0.0 0.0 1
C_22173 RECT_CLOSED 1.7500 1.7500 0.0 0.0 1
C_22174 RECT_CLOSED 2.5000 5.0000 0.0 0.0 1
C_22175 CIRCULAR 1.8000 1.8000 0.0 0.0 1
C_22176 CIRCULAR 1.8000 1.8000 0.0 0.0 1
C_22177 CIRCULAR 1.8000 1.8000 0.0 0.0 1
C_22178 CIRCULAR 1.8000 1.8000 0.0 0.0 1
C_22187 CIRCULAR 0.8000 0.8000 0.0 0.0 1
C_22188 CIRCULAR 0.4500 0.4500 0.0 0.0 1
C_22189 CIRCULAR 0.4500 0.4500 0.0 0.0 1
C_22190 RECT_CLOSED 1.7500 1.7500 0.0 0.0 1
C_22191 CIRCULAR 1.8000 1.8000 0.0 0.0 1
C_22192 CIRCULAR 1.8000 1.8000 0.0 0.0 1
C_22193 CIRCULAR 0.6000 0.6000 0.0 0.0 1
C_22194 CIRCULAR 1.8000 1.8000 0.0 0.0 1
C_22195 CIRCULAR 0.6000 0.6000 0.0 0.0 1
C_22196 RECT_CLOSED 2.0000 4.0000 0.0 0.0 1
C_22207 CIRCULAR 0.4500 0.4500 0.0 0.0 1
C_22208 CIRCULAR 0.6000 0.6000 0.0 0.0 1
C_22209 CIRCULAR 1.8000 1.8000 0.0 0.0 1
C_22210 CIRCULAR 0.6000 0.6000 0.0 0.0 1
C_22211 CIRCULAR 1.0000 1.0000 0.0 0.0 1
C_22212 CIRCULAR 0.4500 0.4500 0.0 0.0 1
C_22213 CIRCULAR 1.0000 1.0000 0.0 0.0 1
C_22214 CIRCULAR 0.4500 0.4500 0.0 0.0 1
C_22215 CIRCULAR 0.6000 0.6000 0.0 0.0 1
C_22216 CIRCULAR 1.0000 1.0000 0.0 0.0 1
C_22217 CIRCULAR 1.0000 1.0000 0.0 0.0 1
C_22218 CIRCULAR 1.0000 1.0000 0.0 0.0 1
C_22219 CIRCULAR 1.0000 1.0000 0.0 0.0 1
C_22220 RECT_CLOSED 2.0000 4.0000 0.0 0.0 1
C_22241 CIRCULAR 1.0000 1.0000 0.0 0.0 1
C_22242 CIRCULAR 1.0000 1.0000 0.0 0.0 1
C_22243 CIRCULAR 1.0000 1.0000 0.0 0.0 1
C_22244 CIRCULAR 1.0000 1.0000 0.0 0.0 1
C_22245 RECT_CLOSED 2.0000 4.0000 0.0 0.0 1
C_22277 CIRCULAR 1.0000 1.0000 0.0 0.0 1
C_22278 CIRCULAR 1.0000 1.0000 0.0 0.0 1
C_22279 CIRCULAR 1.0000 1.0000 0.0 0.0 1
C_22280 CIRCULAR 1.0000 1.0000 0.0 0.0 1
C_22281 RECT_CLOSED 2.0000 4.0000 0.0 0.0 1
C_22298 CIRCULAR 0.9000 0.9000 0.0 0.0 1
C_22299 CIRCULAR 0.9000 0.9000 0.0 0.0 1
C_22300 CIRCULAR 0.9000 0.9000 0.0 0.0 1
C_22301 CIRCULAR 0.9000 0.9000 0.0 0.0 1
C_22302 RECT_CLOSED 2.0000 4.0000 0.0 0.0 1
C_22303 RECT_CLOSED 1.2000 3.0000 0.0 0.0 1
C_22304 CIRCULAR 1.2000 1.2000 0.0 0.0 1
C_22305 RECT_CLOSED 1.2000 3.0000 0.0 0.0 1
C_22306 CIRCULAR 1.2000 1.2000 0.0 0.0 1
C_22307 CIRCULAR 1.2000 1.2000 0.0 0.0 1
C_22308 RECT_CLOSED 1.2000 3.0000 0.0 0.0 1
C_22309 CIRCULAR 1.2000 1.2000 0.0 0.0 1
C_22310 RECT_CLOSED 1.4000 1.2000 0.0 0.0 1
C_22311 RECT_CLOSED 1.2500 3.0000 0.0 0.0 1
C_22312 RECT_CLOSED 1.4000 1.2000 0.0 0.0 1
C_22313 RECT_CLOSED 1.2500 3.0000 0.0 0.0 1
C_22314 RECT_OPEN 1.4000 1.2000 0.0 0.0 1
C_22315 RECT_OPEN 1.4000 1.8000 0.0 0.0 1
C_22316 RECT_OPEN 1.4000 1.8000 0.0 0.0 1
C_22317 RECT_OPEN 1.2790 1.8000 0.0 0.0 1
C_22318 CIRCULAR 1.2000 1.2000 0.0 0.0 1
C_22319 RECT_OPEN 1.3500 1.8000 0.0 0.0 1
C_22320 RECT_OPEN 1.4500 1.8000 0.0 0.0 1
C_22321 CIRCULAR 1.2000 1.2000 0.0 0.0 1
C_22322 RECT_CLOSED 1.2500 3.0000 0.0 0.0 1
C_22323 RECT_OPEN 1.4000 1.8000 0.0 0.0 1
C_22324 RECT_OPEN 1.3500 1.8000 0.0 0.0 1
C_22325 RECT_OPEN 1.5000 1.8000 0.0 0.0 1
C_22326 RECT_OPEN 1.4000 1.8000 0.0 0.0 1
C_22327 RECT_OPEN 1.7000 1.8000 0.0 0.0 1
C_22329 CIRCULAR 1.4000 1.4000 0.0 0.0 1
C_22330 CIRCULAR 1.4000 1.4000 0.0 0.0 1
C_22331 CIRCULAR 1.2800 1.2800 0.0 0.0 1
C_22332 CIRCULAR 1.2800 1.2800 0.0 0.0 1
C_22333 CIRCULAR 1.1500 1.1500 0.0 0.0 1
C_22334 CIRCULAR 1.2800 1.2800 0.0 0.0 1
C_22335 CIRCULAR 1.4000 1.4000 0.0 0.0 1
C_22336 CIRCULAR 1.4000 1.4000 0.0 0.0 1
C_22337 CIRCULAR 0.9000 0.9000 0.0 0.0 1
C_22341 CIRCULAR 0.9000 0.9000 0.0 0.0 1
C_22343 RECT_CLOSED 2.0000 4.0000 0.0 0.0 1
C_22345 CIRCULAR 0.9000 0.9000 0.0 0.0 1
C_22346 CIRCULAR 1.1500 1.1500 0.0 0.0 1
C_22348 CIRCULAR 0.9000 0.9000 0.0 0.0 1
C_22349 RECT_CLOSED 2.0000 4.0000 0.0 0.0 1
C_22359 RECT_OPEN 1.4000 1.2000 0.0 0.0 1
C_22360 RECT_CLOSED 1.2000 3.0000 0.0 0.0 1
C_22361 RECT_OPEN 1.4000 1.2000 0.0 0.0 1
C_22362 RECT_CLOSED 1.2000 3.0000 0.0 0.0 1
C_22363 RECT_CLOSED 1.0000 3.0000 0.0 0.0 1
C_22365 CIRCULAR 0.9000 0.9000 0.0 0.0 1
C_22368 RECT_CLOSED 1.2500 3.0000 0.0 0.0 1
C_22369 CIRCULAR 1.2000 1.2000 0.0 0.0 1
C_22370 RECT_CLOSED 1.2500 3.0000 0.0 0.0 1
C_22371 RECT_CLOSED 1.2500 3.0000 0.0 0.0 1
C_22372 CIRCULAR 1.2000 1.2000 0.0 0.0 1
C_22373 CIRCULAR 1.2000 1.2000 0.0 0.0 1
C_22374 CIRCULAR 1.2000 1.2000 0.0 0.0 1
C_22375 RECT_CLOSED 1.2500 3.0000 0.0 0.0 1
C_22376 CIRCULAR 1.2000 1.2000 0.0 0.0 1
C_22377 CIRCULAR 1.2000 1.2000 0.0 0.0 1
C_22378 CIRCULAR 1.2000 1.2000 0.0 0.0 1
C_22379 RECT_CLOSED 1.4000 3.0000 0.0 0.0 1
C_22380 RECT_CLOSED 1.4000 3.0000 0.0 0.0 1
C_22381 RECT_CLOSED 1.4000 3.0000 0.0 0.0 1
C_22382 CIRCULAR 1.2000 1.2000 0.0 0.0 1
C_22383 CIRCULAR 1.2000 1.2000 0.0 0.0 1
C_22384 RECT_CLOSED 1.4000 3.0000 0.0 0.0 1
C_22385 RECT_CLOSED 1.4000 3.0000 0.0 0.0 1
C_22386 CIRCULAR 1.2800 1.2800 0.0 0.0 1
C_22387 CIRCULAR 1.4000 1.4000 0.0 0.0 1
C_22388 RECT_OPEN 1.6000 1.8000 0.0 0.0 1
C_22389 CIRCULAR 1.2800 1.2800 0.0 0.0 1
C_22390 CIRCULAR 1.4000 1.4000 0.0 0.0 1
C_22391 CIRCULAR 1.1500 1.1500 0.0 0.0 1
C_22392 CIRCULAR 1.4000 1.4000 0.0 0.0 1
C_22393 CIRCULAR 1.2800 1.2800 0.0 0.0 1
C_22394 RECT_OPEN 2.0000 1.8000 0.0 0.0 1
C_22395 RECT_CLOSED 2.0000 2.0000 0.0 0.0 1
C_22396 CIRCULAR 1.2000 1.2000 0.0 0.0 1
C_22397 RECT_CLOSED 2.0000 2.0000 0.0 0.0 1
C_22398 RECT_CLOSED 2.0000 4.0000 0.0 0.0 1
C_22399 CIRCULAR 1.2000 1.2000 0.0 0.0 1
C_22400 RECT_CLOSED 1.4000 3.0000 0.0 0.0 1
C_22401 CIRCULAR 1.2000 1.2000 0.0 0.0 1
C_22402 RECT_CLOSED 1.4000 3.0000 0.0 0.0 1
C_22403 RECT_CLOSED 2.0000 4.0000 0.0 0.0 1
C_22404 CIRCULAR 1.2000 1.2000 0.0 0.0 1
C_22405 CIRCULAR 1.2000 1.2000 0.0 0.0 1
C_22406 RECT_CLOSED 2.0000 4.0000 0.0 0.0 1
C_22407 RECT_CLOSED 2.0000 2.0000 0.0 0.0 1
C_22604 RECT_CLOSED 1.8400 3.5000 0.0 0.0 1
C_22605 RECT_CLOSED 1.5750 3.5000 0.0 0.0 1
C_22606 RECT_CLOSED 2.8980 3.5000 0.0 0.0 1
C_22611 RECT_OPEN 1.9900 3.0000 0.0 0.0 1
C_22612 RECT_OPEN 1.9900 3.0000 0.0 0.0 1
C_22613 RECT_OPEN 1.6940 3.0000 0.0 0.0 1
C_22614 RECT_OPEN 1.9900 3.0000 0.0 0.0 1
C_22615 RECT_OPEN 1.9900 3.0000 0.0 0.0 1
C_22616 RECT_OPEN 2.2580 3.0000 0.0 0.0 1
C_22617 RECT_OPEN 1.9900 3.0000 0.0 0.0 1
C_22618 RECT_OPEN 1.9900 3.0000 0.0 0.0 1
C_23916 RECT_OPEN 3.1150 2.0000 0.0 0.0 1
C_23917 RECT_OPEN 3.0390 2.0000 0.0 0.0 1
C_23918 RECT_OPEN 3.3350 2.0000 0.0 0.0 1
C_23919 RECT_OPEN 3.7620 4.0000 0.0 0.0 1
C_23920 RECT_OPEN 2.9420 2.0000 0.0 0.0 1
C_23921 RECT_OPEN 3.1600 2.0000 0.0 0.0 1
C_23922 RECT_OPEN 3.6010 2.0000 0.0 0.0 1
C_23923 RECT_OPEN 2.9050 2.0000 0.0 0.0 1
C_23924 RECT_OPEN 3.1820 2.0000 0.0 0.0 1
C_23925 RECT_CLOSED 3.6420 4.0000 0.0 0.0 1
C_23926 RECT_CLOSED 3.4480 4.0000 0.0 0.0 1
C_23945 RECT_CLOSED 2.4000 3.0000 0.0 0.0 1
C_23946 RECT_CLOSED 2.4000 3.0000 0.0 0.0 1
C_23947 RECT_CLOSED 2.4000 3.0000 0.0 0.0 1
C_23948 RECT_CLOSED 2.4000 3.0000 0.0 0.0 1
C_23949 RECT_CLOSED 2.4000 3.0000 0.0 0.0 1
C_23951 RECT_CLOSED 1.5000 1.8000 0.0 0.0 1
C_23953 RECT_CLOSED 2.4000 3.0000 0.0 0.0 1
C_23954 CIRCULAR 0.7500 0.7500 0.0 0.0 1
C_23955 CIRCULAR 0.7500 0.7500 0.0 0.0 1
C_23956 CIRCULAR 0.7500 0.7500 0.0 0.0 1
C_23957 CIRCULAR 0.7500 0.7500 0.0 0.0 1
C_23996 RECT_CLOSED 1.5000 1.8000 0.0 0.0 1
C_23997 RECT_CLOSED 2.4000 3.0000 0.0 0.0 1
C_23998 RECT_CLOSED 1.5000 1.8000 0.0 0.0 1
C_23999 RECT_CLOSED 2.4000 3.0000 0.0 0.0 1
C_24000 RECT_CLOSED 1.5000 1.8000 0.0 0.0 1
C_24001 RECT_CLOSED 2.4000 3.0000 0.0 0.0 1
C_24002 RECT_CLOSED 1.5000 1.8000 0.0 0.0 1
C_24003 RECT_CLOSED 2.4000 3.0000 0.0 0.0 1
C_24023 CIRCULAR 0.6000 0.6000 0.0 0.0 1
C_24024 CIRCULAR 0.6000 0.6000 0.0 0.0 1
C_24025 CIRCULAR 0.6000 0.6000 0.0 0.0 1
C_24030 RECT_CLOSED 2.4000 3.0000 0.0 0.0 1
C_24031 RECT_CLOSED 1.5000 1.8000 0.0 0.0 1
C_24032 RECT_CLOSED 2.4000 3.0000 0.0 0.0 1
C_24033 RECT_CLOSED 1.5000 1.8000 0.0 0.0 1
C_24035 RECT_CLOSED 2.4000 3.0000 0.0 0.0 1
C_24036 RECT_CLOSED 1.5000 1.8000 0.0 0.0 1
C_24044 CIRCULAR 0.6000 0.6000 0.0 0.0 1
C_24045 CIRCULAR 0.6000 0.6000 0.0 0.0 1
C_24046 CIRCULAR 0.6000 0.6000 0.0 0.0 1
C_24050 RECT_CLOSED 1.5000 1.8000 0.0 0.0 1
C_24051 RECT_CLOSED 2.4000 3.0000 0.0 0.0 1
C_24052 RECT_CLOSED 1.5000 1.8000 0.0 0.0 1
C_24053 RECT_CLOSED 2.4000 3.0000 0.0 0.0 1
C_24054 RECT_CLOSED 1.5000 1.8000 0.0 0.0 1
C_24055 RECT_CLOSED 2.4000 3.0000 0.0 0.0 1
C_24066 CIRCULAR 0.6000 0.6000 0.0 0.0 1
C_24067 RECT_OPEN 4.1710 4.0000 0.0 0.0 1
C_24068 RECT_OPEN 3.5610 4.0000 0.0 0.0 1
C_24069 RECT_OPEN 3.4390 4.0000 0.0 0.0 1
C_24070 RECT_OPEN 3.4170 4.0000 0.0 0.0 1
C_24071 RECT_OPEN 3.4330 4.0000 0.0 0.0 1
C_24093 RECT_CLOSED 1.5000 1.8000 0.0 0.0 1
C_24094 RECT_CLOSED 2.4000 3.0000 0.0 0.0 1
C_24095 RECT_CLOSED 2.4000 3.0000 0.0 0.0 1
C_24099 RECT_CLOSED 1.5000 1.8000 0.0 0.0 1
C_24104 RECT_CLOSED 2.4000 3.0000 0.0 0.0 1
C_24105 RECT_CLOSED 1.5000 1.8000 0.0 0.0 1
C_24111 RECT_CLOSED 1.5000 1.8000 0.0 0.0 1
C_24113 RECT_CLOSED 2.4000 3.0000 0.0 0.0 1
C_24114 CIRCULAR 1.2000 1.2000 0.0 0.0 1
C_24115 CIRCULAR 1.2000 1.2000 0.0 0.0 1
C_24116 CIRCULAR 1.2000 1.2000 0.0 0.0 1
C_24117 CIRCULAR 1.2000 1.2000 0.0 0.0 1
C_24118 CIRCULAR 1.2000 1.2000 0.0 0.0 1
C_24119 CIRCULAR 1.2000 1.2000 0.0 0.0 1
C_24120 CIRCULAR 1.2000 1.2000 0.0 0.0 1
C_24126 CIRCULAR 1.2000 1.2000 0.0 0.0 1
C_24138 RECT_OPEN 3.3710 4.0000 0.0 0.0 1
C_24139 RECT_OPEN 3.3590 4.0000 0.0 0.0 1
C_24140 RECT_OPEN 3.4220 4.0000 0.0 0.0 1
C_24141 RECT_OPEN 3.5800 4.0000 0.0 0.0 1
C_24142 RECT_OPEN 3.5820 4.0000 0.0 0.0 1
C_24143 RECT_OPEN 3.5300 4.0000 0.0 0.0 1
C_24144 RECT_CLOSED 2.4000 3.0000 0.0 0.0 1
C_24146 RECT_OPEN 3.9280 8.5000 0.0 0.0 1
C_24147 RECT_OPEN 3.8130 8.2500 0.0 0.0 1
C_24148 RECT_OPEN 3.6150 8.2500 0.0 0.0 1
C_24149 RECT_OPEN 3.9540 8.2500 0.0 0.0 1
C_24150 RECT_OPEN 3.8080 8.2500 0.0 0.0 1
C_24151 RECT_OPEN 3.9920 8.2500 0.0 0.0 1
C_24152 RECT_OPEN 3.9970 8.2500 0.0 0.0 1
C_24154 CIRCULAR 0.6000 0.6000 0.0 0.0 1
C_24158 RECT_OPEN 3.5180 4.0000 0.0 0.0 1
C_24159 RECT_OPEN 3.3510 4.0000 0.0 0.0 1
C_24160 RECT_CLOSED 3.2120 4.0000 0.0 0.0 1
C_24161 RECT_OPEN 3.1530 4.0000 0.0 0.0 1
C_24162 RECT_OPEN 3.1410 4.0000 0.0 0.0 1
C_24163 RECT_OPEN 3.1040 4.0000 0.0 0.0 1
C_24164 RECT_OPEN 4.0170 8.2500 0.0 0.0 1
C_24165 RECT_OPEN 4.0120 8.2500 0.0 0.0 1
C_24166 RECT_OPEN 4.0240 8.2500 0.0 0.0 1
C_24167 RECT_OPEN 4.0430 8.2500 0.0 0.0 1
C_24169 RECT_OPEN 3.9980 8.2500 0.0 0.0 1
C_24170 RECT_OPEN 4.0150 8.2500 0.0 0.0 1
C_24172 RECT_OPEN 4.1110 8.2500 0.0 0.0 1
C_24173 RECT_OPEN 4.0440 8.2500 0.0 0.0 1
C_24174 RECT_OPEN 4.2030 8.2500 0.0 0.0 1
C_24175 RECT_CLOSED 3.5000 8.2500 0.0 0.0 1
C_24176 RECT_CLOSED 3.5000 8.2500 0.0 0.0 1
C_24179 RECT_OPEN 4.3530 8.2500 0.0 0.0 1
C_24180 RECT_OPEN 4.0930 8.2500 0.0 0.0 1
C_24181 RECT_OPEN 4.0720 8.2500 0.0 0.0 1
C_24183 RECT_OPEN 3.8150 8.2500 0.0 0.0 1
C_24185 RECT_OPEN 3.0660 4.0000 0.0 0.0 1
C_24186 RECT_OPEN 3.2470 4.0000 0.0 0.0 1
C_24187 RECT_OPEN 3.3510 4.0000 0.0 0.0 1
C_24188 RECT_OPEN 3.4350 4.0000 0.0 0.0 1
C_24189 RECT_OPEN 3.3820 4.0000 0.0 0.0 1
C_24190 RECT_OPEN 3.3920 4.0000 0.0 0.0 1
C_24192 RECT_OPEN 4.0240 8.2500 0.0 0.0 1
C_24193 RECT_OPEN 4.0580 8.2500 0.0 0.0 1
C_24194 RECT_OPEN 4.0630 8.2500 0.0 0.0 1
C_24195 RECT_OPEN 4.0780 8.2500 0.0 0.0 1
C_24196 RECT_OPEN 4.0940 8.2500 0.0 0.0 1
C_24197 RECT_OPEN 3.4200 4.0000 0.0 0.0 1
C_24198 RECT_OPEN 3.3820 4.0000 0.0 0.0 1
C_24199 RECT_OPEN 3.5380 4.0000 0.0 0.0 1
C_24200 RECT_OPEN 3.5910 4.0000 0.0 0.0 1
C_24201 RECT_OPEN 3.7090 4.0000 0.0 0.0 1
C_24202 RECT_OPEN 3.9540 8.2500 0.0 0.0 1
C_24203 RECT_OPEN 3.8600 8.2500 0.0 0.0 1
C_24204 RECT_OPEN 3.8580 8.2500 0.0 0.0 1
C_24205 RECT_OPEN 3.8600 8.2500 0.0 0.0 1
C_24206 RECT_OPEN 3.8690 8.2500 0.0 0.0 1
C_24207 RECT_OPEN 3.8770 8.2500 0.0 0.0 1
C_24209 RECT_OPEN 3.8800 8.2500 0.0 0.0 1
C_24210 RECT_OPEN 3.1690 2.5000 0.0 0.0 1
C_24211 RECT_OPEN 3.1040 2.5000 0.0 0.0 1
C_24212 RECT_OPEN 2.6410 2.5000 0.0 0.0 1
C_24213 RECT_CLOSED 3.5850 4.0000 0.0 0.0 1
C_24214 RECT_CLOSED 3.7580 4.0000 0.0 0.0 1
C_24215 RECT_CLOSED 3.8370 4.0000 0.0 0.0 1
C_24216 RECT_OPEN 3.8850 8.2500 0.0 0.0 1
C_24217 RECT_OPEN 3.8980 8.2500 0.0 0.0 1
C_24218 RECT_OPEN 3.8950 8.2500 0.0 0.0 1
C_24219 RECT_OPEN 3.8790 8.2500 0.0 0.0 1
C_24220 RECT_OPEN 3.8980 8.2500 0.0 0.0 1
C_24221 RECT_OPEN 3.9190 8.2500 0.0 0.0 1
C_24222 RECT_OPEN 2.1210 2.5000 0.0 0.0 1
C_24223 RECT_OPEN 3.1730 2.5000 0.0 0.0 1
C_24224 RECT_OPEN 3.1980 2.5000 0.0 0.0 1
C_24225 RECT_OPEN 2.5850 2.5000 0.0 0.0 1
C_24226 RECT_OPEN 2.3990 2.5000 0.0 0.0 1
C_24227 RECT_OPEN 2.2710 2.5000 0.0 0.0 1
C_24557 RECT_OPEN 3.0950 2.5000 0.0 0.0 1
C_24558 RECT_OPEN 3.1710 2.5000 0.0 0.0 1
C_24559 RECT_OPEN 1.8520 4.5000 0.0 0.0 1
C_24560 RECT_OPEN 2.1310 4.5000 0.0 0.0 1
C_24561 RECT_OPEN 2.0610 4.5000 0.0 0.0 1
C_24562 RECT_OPEN 2.0000 4.5000 0.0 0.0 1
C_24563 RECT_OPEN 2.3700 4.5000 0.0 0.0 1
C_24564 RECT_OPEN 1.8930 3.5000 0.0 0.0 1
C_24565 RECT_OPEN 1.9730 3.5000 0.0 0.0 1
C_24566 RECT_OPEN 1.9390 3.5000 0.0 0.0 1
C_24570 RECT_OPEN 2.1490 4.5000 0.0 0.0 1
C_24571 RECT_OPEN 2.1860 4.5000 0.0 0.0 1
C_24572 RECT_OPEN 2.0450 4.5000 0.0 0.0 1
C_24573 RECT_OPEN 2.0840 4.5000 0.0 0.0 1
C_24574 RECT_OPEN 1.7510 3.5000 0.0 0.0 1
C_24575 RECT_OPEN 2.0930 4.5000 0.0 0.0 1
C_24576 RECT_OPEN 2.0950 3.5000 0.0 0.0 1
C_24577 RECT_OPEN 1.9520 3.5000 0.0 0.0 1
C_24578 RECT_OPEN 1.9280 3.5000 0.0 0.0 1
C_24579 RECT_OPEN 1.9070 3.5000 0.0 0.0 1
C_24580 RECT_OPEN 1.8150 3.5000 0.0 0.0 1
C_24581 RECT_OPEN 2.2060 3.5000 0.0 0.0 1
C_24582 RECT_OPEN 1.8140 3.5000 0.0 0.0 1
C_24583 RECT_OPEN 2.0240 3.5000 0.0 0.0 1
C_24584 RECT_OPEN 2.0750 3.5000 0.0 0.0 1
C_24585 RECT_OPEN 2.1050 3.5000 0.0 0.0 1
C_24586 RECT_OPEN 2.0050 3.5000 0.0 0.0 1
C_24587 RECT_OPEN 2.0860 3.5000 0.0 0.0 1
C_24588 RECT_OPEN 1.7460 3.5000 0.0 0.0 1
C_24589 RECT_OPEN 2.5720 3.5000 0.0 0.0 1
C_24590 RECT_OPEN 2.5000 3.5000 0.0 0.0 1
C_24603 RECT_CLOSED 2.0000 4.0000 0.0 0.0 1
C_24604 CIRCULAR 1.2000 1.2000 0.0 0.0 1
C_24605 CIRCULAR 1.2000 1.2000 0.0 0.0 1
C_24606 RECT_CLOSED 2.0000 2.0000 0.0 0.0 1
C_24607 CIRCULAR 1.2000 1.2000 0.0 0.0 1
C_24608 CIRCULAR 1.2000 1.2000 0.0 0.0 1
C_24609 RECT_CLOSED 2.0000 2.0000 0.0 0.0 1
C_24610 CIRCULAR 1.2000 1.2000 0.0 0.0 1
C_24611 RECT_CLOSED 2.0000 2.0000 0.0 0.0 1
C_24612 CIRCULAR 1.2000 1.2000 0.0 0.0 1
C_24613 RECT_CLOSED 2.0000 2.0000 0.0 0.0 1
C_24614 CIRCULAR 1.2000 1.2000 0.0 0.0 1
C_24615 CIRCULAR 1.2000 1.2000 0.0 0.0 1
C_24635 RECT_CLOSED 2.0000 2.0000 0.0 0.0 1
C_24636 CIRCULAR 1.2000 1.2000 0.0 0.0 1
C_24637 RECT_CLOSED 2.0000 2.0000 0.0 0.0 1
C_24638 RECT_CLOSED 2.0000 2.0000 0.0 0.0 1
C_24639 CIRCULAR 1.2000 1.2000 0.0 0.0 1
C_24640 CIRCULAR 1.2000 1.2000 0.0 0.0 1
C_24641 CIRCULAR 1.2000 1.2000 0.0 0.0 1
C_24642 RECT_CLOSED 2.0000 2.0000 0.0 0.0 1
C_24643 CIRCULAR 1.2000 1.2000 0.0 0.0 1
C_24644 CIRCULAR 1.2000 1.2000 0.0 0.0 1
C_24645 CIRCULAR 1.2000 1.2000 0.0 0.0 1
C_24648 RECT_CLOSED 2.0000 2.0000 0.0 0.0 1
C_24649 CIRCULAR 1.2000 1.2000 0.0 0.0 1
C_24650 CIRCULAR 1.2000 1.2000 0.0 0.0 1
C_24651 RECT_CLOSED 2.0000 2.0000 0.0 0.0 1
C_24652 CIRCULAR 1.2000 1.2000 0.0 0.0 1
C_24653 CIRCULAR 1.2000 1.2000 0.0 0.0 1
C_24654 RECT_CLOSED 2.0000 2.0000 0.0 0.0 1
C_24655 CIRCULAR 1.2000 1.2000 0.0 0.0 1
C_24656 CIRCULAR 1.2000 1.2000 0.0 0.0 1
C_24676 RECT_CLOSED 2.0000 2.0000 0.0 0.0 1
C_24677 RECT_CLOSED 2.0000 2.0000 0.0 0.0 1
C_24680 RECT_CLOSED 2.0000 2.0000 0.0 0.0 1
C_24681 CIRCULAR 1.2000 1.2000 0.0 0.0 1
C_24682 CIRCULAR 1.2000 1.2000 0.0 0.0 1
C_24683 RECT_CLOSED 2.0000 2.0000 0.0 0.0 1
C_24684 CIRCULAR 1.2000 1.2000 0.0 0.0 1
C_24685 CIRCULAR 1.2000 1.2000 0.0 0.0 1
C_24686 RECT_CLOSED 2.0000 2.0000 0.0 0.0 1
C_24687 CIRCULAR 1.2000 1.2000 0.0 0.0 1
C_24688 CIRCULAR 1.2000 1.2000 0.0 0.0 1
C_24689 RECT_CLOSED 2.0000 2.0000 0.0 0.0 1
C_24691 CIRCULAR 0.4500 0.4500 0.0 0.0 1
C_24692 CIRCULAR 0.7500 0.7500 0.0 0.0 1
C_24693 CIRCULAR 0.4500 0.4500 0.0 0.0 1
C_24694 CIRCULAR 1.2000 1.2000 0.0 0.0 1
C_24695 CIRCULAR 1.2000 1.2000 0.0 0.0 1
C_24696 CIRCULAR 0.7500 0.7500 0.0 0.0 1
C_24697 RECT_CLOSED 2.0000 2.0000 0.0 0.0 1
C_24723 CIRCULAR 0.7500 0.7500 0.0 0.0 1
C_24724 CIRCULAR 0.6000 0.6000 0.0 0.0 1
C_24725 CIRCULAR 0.7500 0.7500 0.0 0.0 1
C_24726 CIRCULAR 1.2000 1.2000 0.0 0.0 1
C_24727 CIRCULAR 1.2000 1.2000 0.0 0.0 1
C_24728 CIRCULAR 1.2000 1.2000 0.0 0.0 1
C_24729 RECT_CLOSED 2.0000 2.0000 0.0 0.0 1
C_24730 CIRCULAR 1.2000 1.2000 0.0 0.0 1
C_24731 CIRCULAR 0.6000 0.6000 0.0 0.0 1
C_24733 RECT_CLOSED 2.5000 3.0000 0.0 0.0 1
C_24734 RECT_CLOSED 2.5000 3.0000 0.0 0.0 1
C_24735 RECT_OPEN 2.3000 2.0000 0.0 0.0 1
C_24736 RECT_CLOSED 2.5000 3.0000 0.0 0.0 1
C_24737 CIRCULAR 0.7500 0.7500 0.0 0.0 1
C_24738 RECT_OPEN 1.0000 1.0000 0.0 0.0 1
C_24739 RECT_OPEN 1.0000 1.0000 0.0 0.0 1
C_24740 CIRCULAR 1.2000 1.2000 0.0 0.0 1
C_24741 RECT_OPEN 2.4000 2.0000 0.0 0.0 1
C_24742 CIRCULAR 1.2000 1.2000 0.0 0.0 1
C_24743 RECT_CLOSED 2.5000 3.0000 0.0 0.0 1
C_24744 RECT_OPEN 2.4000 2.0000 0.0 0.0 1
C_24745 RECT_CLOSED 2.5000 3.0000 0.0 0.0 1
C_24746 RECT_OPEN 2.5000 2.0000 0.0 0.0 1
C_24747 CIRCULAR 1.2000 1.2000 0.0 0.0 1
C_24748 CIRCULAR 1.2000 1.2000 0.0 0.0 1
C_24749 RECT_OPEN 2.5000 2.0000 0.0 0.0 1
C_24766 CIRCULAR 0.7500 0.7500 0.0 0.0 1
C_24767 CIRCULAR 0.7500 0.7500 0.0 0.0 1
C_24768 RECT_CLOSED 2.5000 3.0000 0.0 0.0 1
C_24769 RECT_CLOSED 2.5000 3.0000 0.0 0.0 1
C_24770 RECT_OPEN 1.2000 1.0000 0.0 0.0 1
C_24771 RECT_OPEN 2.6000 8.0000 0.0 0.0 1
C_24772 RECT_OPEN 1.0000 1.0000 0.0 0.0 1
C_24773 CIRCULAR 0.7500 0.7500 0.0 0.0 1
C_24774 RECT_CLOSED 2.5000 3.0000 0.0 0.0 1
C_24775 RECT_CLOSED 2.5000 3.0000 0.0 0.0 1
C_24776 RECT_CLOSED 2.5000 3.0000 0.0 0.0 1
C_24777 RECT_CLOSED 2.5000 3.0000 0.0 0.0 1
C_24791 RECT_CLOSED 2.3000 3.0000 0.0 0.0 1
C_24792 CIRCULAR 1.0500 1.0500 0.0 0.0 1
C_24793 CIRCULAR 1.0500 1.0500 0.0 0.0 1
C_24794 CIRCULAR 1.0500 1.0500 0.0 0.0 1
C_24795 CIRCULAR 0.5100 0.5100 0.0 0.0 1
C_24796 CIRCULAR 1.0500 1.0500 0.0 0.0 1
C_24797 CIRCULAR 1.0500 1.0500 0.0 0.0 1
C_24798 CIRCULAR 1.0500 1.0500 0.0 0.0 1
C_24799 CIRCULAR 0.5100 0.5100 0.0 0.0 1
C_24800 CIRCULAR 0.5100 0.5100 0.0 0.0 1
C_24801 CIRCULAR 0.5100 0.5100 0.0 0.0 1
C_24802 CIRCULAR 0.4500 0.4500 0.0 0.0 1
C_24812 CIRCULAR 1.0500 1.0500 0.0 0.0 1
C_24813 CIRCULAR 1.0500 1.0500 0.0 0.0 1
C_24814 CIRCULAR 1.0500 1.0500 0.0 0.0 1
C_24815 CIRCULAR 1.0500 1.0500 0.0 0.0 1
C_24816 CIRCULAR 1.0500 1.0500 0.0 0.0 1
C_24817 CIRCULAR 1.0500 1.0500 0.0 0.0 1
C_24828 CIRCULAR 1.0500 1.0500 0.0 0.0 1
C_24829 CIRCULAR 1.0500 1.0500 0.0 0.0 1
C_24830 CIRCULAR 1.0500 1.0500 0.0 0.0 1
C_24832 CIRCULAR 1.0500 1.0500 0.0 0.0 1
C_24844 RECT_CLOSED 1.2060 2.0000 0.0 0.0 1
C_24845 RECT_CLOSED 1.2960 2.0000 0.0 0.0 1
C_24846 RECT_CLOSED 1.1730 2.0000 0.0 0.0 1
C_24852 RECT_OPEN 1.3390 2.0000 0.0 0.0 1
C_24853 RECT_OPEN 1.2060 2.0000 0.0 0.0 1
C_24854 RECT_OPEN 1.1640 2.0000 0.0 0.0 1
C_24855 RECT_OPEN 1.5150 2.0000 0.0 0.0 1
C_24856 RECT_OPEN 2.8000 8.0000 0.0 0.0 1
C_24857 RECT_OPEN 3.0000 8.0000 0.0 0.0 1
C_24858 RECT_OPEN 3.1000 8.0000 0.0 0.0 1
C_24859 RECT_OPEN 3.1000 8.0000 0.0 0.0 1
C_24860 RECT_OPEN 3.1000 8.0000 0.0 0.0 1
C_24862 RECT_OPEN 1.4980 5.0000 0.0 0.0 1
C_24863 RECT_OPEN 1.3550 5.0000 0.0 0.0 1
C_24864 RECT_OPEN 1.2930 5.0000 0.0 0.0 1
C_24865 RECT_OPEN 1.3560 5.0000 0.0 0.0 1
C_24866 RECT_OPEN 1.4990 5.0000 0.0 0.0 1
C_24867 RECT_OPEN 0.9980 2.0000 0.0 0.0 1
C_24868 CIRCULAR 0.4500 0.4500 0.0 0.0 1
C_24871 RECT_OPEN 1.4820 5.0000 0.0 0.0 1
C_24872 RECT_OPEN 1.7040 5.0000 0.0 0.0 1
C_24873 RECT_OPEN 1.0450 2.0000 0.0 0.0 1
C_24874 RECT_OPEN 1.1980 2.0000 0.0 0.0 1
C_24877 RECT_OPEN 1.2660 2.0000 0.0 0.0 1
C_24878 RECT_OPEN 1.3820 2.0000 0.0 0.0 1
C_24894 RECT_OPEN 1.4980 7.0000 0.0 0.0 1
C_24895 RECT_OPEN 1.4710 7.0000 0.0 0.0 1
C_24896 RECT_OPEN 1.7650 7.0000 0.0 0.0 1
C_24897 RECT_OPEN 1.7860 7.0000 0.0 0.0 1
C_24927 RECT_OPEN 2.1080 7.0000 0.0 0.0 1
C_24942 RECT_OPEN 2.4180 8.0000 0.0 0.0 1
C_24943 RECT_OPEN 2.2510 8.0000 0.0 0.0 1
C_24944 RECT_OPEN 2.2130 8.0000 0.0 0.0 1
C_24945 RECT_OPEN 2.1340 8.0000 0.0 0.0 1
C_24946 RECT_OPEN 2.1800 8.0000 0.0 0.0 1
C_24947 RECT_OPEN 2.2250 8.0000 0.0 0.0 1
C_24948 RECT_OPEN 2.4270 5.0000 0.0 0.0 1
C_24949 RECT_OPEN 2.7430 5.0000 0.0 0.0 1
C_24950 RECT_OPEN 2.9950 5.0000 0.0 0.0 1
C_24951 RECT_CLOSED 3.0370 5.0000 0.0 0.0 1
C_24952 RECT_OPEN 1.2990 1.5000 0.0 0.0 1
C_24953 RECT_OPEN 1.3570 1.5000 0.0 0.0 1
C_24954 RECT_OPEN 1.3700 1.5000 0.0 0.0 1
C_24955 RECT_OPEN 1.3990 1.5000 0.0 0.0 1
C_24956 RECT_OPEN 1.3890 1.5000 0.0 0.0 1
C_24957 RECT_OPEN 1.3080 2.0000 0.0 0.0 1
C_24958 RECT_OPEN 1.3080 2.0000 0.0 0.0 1
C_24959 RECT_OPEN 1.4290 2.0000 0.0 0.0 1
C_24960 RECT_OPEN 1.5140 2.0000 0.0 0.0 1
C_24961 RECT_OPEN 1.9290 2.0000 0.0 0.0 1
C_24962 RECT_OPEN 1.7180 2.0000 0.0 0.0 1
C_24963 RECT_CLOSED 3.2020 5.0000 0.0 0.0 1
C_24964 RECT_OPEN 3.3680 5.0000 0.0 0.0 1
C_24965 RECT_OPEN 3.3300 5.0000 0.0 0.0 1
C_24966 RECT_OPEN 3.5980 5.0000 0.0 0.0 1
C_24967 RECT_OPEN 1.6720 1.5000 0.0 0.0 1
C_24968 RECT_OPEN 1.8880 1.5000 0.0 0.0 1
C_24969 RECT_OPEN 1.8790 2.0000 0.0 0.0 1
C_24970 RECT_OPEN 1.8990 1.5000 0.0 0.0 1
C_24971 RECT_OPEN 1.8480 2.0000 0.0 0.0 1
C_24972 RECT_OPEN 1.8230 2.0000 0.0 0.0 1
C_24973 RECT_OPEN 1.7780 2.0000 0.0 0.0 1
C_24974 RECT_OPEN 1.8880 2.0000 0.0 0.0 1
C_24975 RECT_OPEN 1.5480 2.0000 0.0 0.0 1
C_24976 RECT_OPEN 1.6480 2.0000 0.0 0.0 1
C_24977 RECT_OPEN 1.8580 2.0000 0.0 0.0 1
C_24978 RECT_OPEN 3.5100 5.0000 0.0 0.0 1
C_24979 RECT_OPEN 4.0150 5.0000 0.0 0.0 1
C_24980 RECT_OPEN 3.2610 5.0000 0.0 0.0 1
C_24981 RECT_OPEN 3.1440 7.0000 0.0 0.0 1
C_24982 RECT_OPEN 1.8980 2.0000 0.0 0.0 1
C_24983 RECT_OPEN 1.9180 2.0000 0.0 0.0 1
C_24984 RECT_OPEN 1.9690 2.0000 0.0 0.0 1
C_24985 RECT_OPEN 1.9980 2.0000 0.0 0.0 1
C_24986 RECT_OPEN 2.0450 2.0000 0.0 0.0 1
C_24987 RECT_OPEN 2.0080 2.0000 0.0 0.0 1
C_24988 RECT_OPEN 1.8880 2.0000 0.0 0.0 1
C_24989 RECT_OPEN 1.6880 2.0000 0.0 0.0 1
C_24990 RECT_OPEN 3.4100 7.0000 0.0 0.0 1
C_24991 RECT_OPEN 3.5070 10.0000 0.0 0.0 1
C_24992 RECT_OPEN 3.4560 10.0000 0.0 0.0 1
C_24993 RECT_OPEN 1.8980 2.3660 0.0 0.0 1
C_24994 RECT_OPEN 1.9180 2.4160 0.0 0.0 1
C_24995 RECT_CLOSED 2.3480 3.0000 0.0 0.0 1
C_24996 RECT_CLOSED 2.2580 3.0000 0.0 0.0 1
C_24997 RECT_OPEN 2.2380 3.1320 0.0 0.0 1
C_24998 RECT_OPEN 1.3990 2.5000 0.0 0.0 1
C_24999 RECT_OPEN 1.4190 2.5000 0.0 0.0 1
C_25000 RECT_OPEN 1.4700 2.5000 0.0 0.0 1
C_25001 RECT_OPEN 1.5390 2.5000 0.0 0.0 1
C_25002 RECT_OPEN 1.6110 2.5000 0.0 0.0 1
C_25003 RECT_OPEN 1.6780 2.5000 0.0 0.0 1
C_25004 RECT_OPEN 1.1980 2.0000 0.0 0.0 1
C_25005 RECT_OPEN 1.2540 2.0000 0.0 0.0 1
C_25006 RECT_OPEN 1.3540 2.5000 0.0 0.0 1
C_25007 RECT_OPEN 1.7950 2.1820 0.0 0.0 1
C_25008 RECT_OPEN 1.8220 4.7940 0.0 0.0 1
C_25009 RECT_OPEN 1.9950 6.5110 0.0 0.0 1
C_25013 RECT_OPEN 1.8830 7.0000 0.0 0.0 1
C_25014 RECT_OPEN 1.7940 7.0000 0.0 0.0 1
C_25015 RECT_OPEN 1.9570 7.0000 0.0 0.0 1
C_25016 RECT_OPEN 1.9600 7.0000 0.0 0.0 1
C_25017 RECT_OPEN 1.9550 7.0000 0.0 0.0 1
C_25018 RECT_CLOSED 2.0720 7.0000 0.0 0.0 1
C_25019 RECT_CLOSED 2.0670 7.0000 0.0 0.0 1
C_25020 RECT_CLOSED 1.9690 6.0000 0.0 0.0 1
C_25021 RECT_CLOSED 1.8910 6.0000 0.0 0.0 1
C_25022 RECT_CLOSED 1.9520 6.0000 0.0 0.0 1
C_25023 RECT_CLOSED 2.0340 6.0000 0.0 0.0 1
C_25027 RECT_OPEN 1.6180 1.7810 0.0 0.0 1
C_25028 RECT_OPEN 1.8240 1.7140 0.0 0.0 1
C_25029 RECT_CLOSED 2.0760 2.2000 0.0 0.0 1
C_25030 RECT_OPEN 2.0280 2.2000 0.0 0.0 1
C_25031 RECT_OPEN 1.7080 1.5290 0.0 0.0 1
C_25032 RECT_OPEN 1.6690 1.5730 0.0 0.0 1
C_25033 RECT_OPEN 2.1970 1.8240 0.0 0.0 1
C_25034 RECT_CLOSED 1.5360 3.5000 0.0 0.0 1
C_25035 RECT_OPEN 2.1220 3.5000 0.0 0.0 1
C_25036 RECT_OPEN 1.4200 5.0410 0.0 0.0 1
C_25037 RECT_OPEN 1.8650 3.0330 0.0 0.0 1
C_25038 RECT_CLOSED 2.5660 5.5000 0.0 0.0 1
C_25039 RECT_OPEN 2.5310 5.5000 0.0 0.0 1
C_25040 RECT_OPEN 2.2590 2.3220 0.0 0.0 1
C_25041 RECT_OPEN 1.8590 1.6650 0.0 0.0 1
C_25042 RECT_CLOSED 2.1780 2.2000 0.0 0.0 1
C_25043 RECT_OPEN 2.4260 2.2000 0.0 0.0 1
C_25044 RECT_OPEN 1.7480 1.6120 0.0 0.0 1
C_25045 RECT_OPEN 1.7440 1.5640 0.0 0.0 1
C_25046 RECT_OPEN 1.8590 2.2270 0.0 0.0 1
C_25047 RECT_OPEN 1.9320 1.7350 0.0 0.0 1
C_25048 RECT_CLOSED 2.0080 4.0000 0.0 0.0 1
C_25049 RECT_CLOSED 1.9280 4.0000 0.0 0.0 1
C_25050 RECT_OPEN 1.9290 1.6170 0.0 0.0 1
C_25051 RECT_OPEN 2.0890 2.2680 0.0 0.0 1
C_25052 RECT_OPEN 1.8950 2.5210 0.0 0.0 1
C_25053 RECT_CLOSED 1.9290 2.8000 0.0 0.0 1
C_25054 RECT_OPEN 1.8900 2.8000 0.0 0.0 1
C_25055 RECT_OPEN 1.6930 2.0340 0.0 0.0 1
C_25056 RECT_OPEN 2.2530 1.9560 0.0 0.0 1
C_25057 RECT_OPEN 1.9620 2.0930 0.0 0.0 1
C_25058 RECT_OPEN 2.2000 2.2620 0.0 0.0 1
C_25059 RECT_OPEN 2.1830 6.8460 0.0 0.0 1
C_25060 RECT_OPEN 2.1110 4.4330 0.0 0.0 1
C_25061 RECT_CLOSED 2.1720 2.6000 0.0 0.0 1
C_25062 RECT_CLOSED 2.1600 2.6000 0.0 0.0 1
C_25063 RECT_OPEN 2.3610 2.2780 0.0 0.0 1
C_25064 RECT_OPEN 1.5190 3.2640 0.0 0.0 1
C_25065 RECT_OPEN 1.8450 3.4320 0.0 0.0 1
C_25066 RECT_OPEN 2.0250 3.7560 0.0 0.0 1
C_25067 RECT_CLOSED 1.9650 2.6000 0.0 0.0 1
C_25068 RECT_CLOSED 1.7270 2.6000 0.0 0.0 1
C_25069 RECT_OPEN 1.6320 2.0460 0.0 0.0 1
C_25070 RECT_OPEN 1.7310 2.3020 0.0 0.0 1
C_25071 RECT_OPEN 1.5670 3.0940 0.0 0.0 1
C_25072 RECT_OPEN 2.1190 1.6070 0.0 0.0 1
C_25073 RECT_OPEN 1.5230 3.0950 0.0 0.0 1
C_25074 RECT_CLOSED 2.8260 2.0000 0.0 0.0 1
C_25075 RECT_OPEN 3.1640 2.0000 0.0 0.0 1
C_25076 RECT_OPEN 2.6920 2.0750 0.0 0.0 1
C_25077 RECT_OPEN 1.6900 1.5650 0.0 0.0 1
C_25078 RECT_OPEN 1.7170 1.8360 0.0 0.0 1
C_25079 RECT_OPEN 1.6650 1.8470 0.0 0.0 1
C_25080 RECT_OPEN 1.8420 1.7910 0.0 0.0 1
C_25081 RECT_OPEN 2.1900 1.7550 0.0 0.0 1
C_25082 RECT_OPEN 2.7770 2.0050 0.0 0.0 1
C_25083 RECT_CLOSED 4.1090 5.8000 0.0 0.0 1
C_25084 RECT_OPEN 2.6420 3.6670 0.0 0.0 1
C_25085 RECT_OPEN 4.5140 5.8000 0.0 0.0 1
C_25086 RECT_OPEN 2.7420 5.7740 0.0 0.0 1
C_25087 RECT_OPEN 2.5250 3.1040 0.0 0.0 1
C_25088 RECT_OPEN 2.0310 2.8320 0.0 0.0 1
C_25089 RECT_OPEN 2.0280 4.1010 0.0 0.0 1
C_25090 RECT_OPEN 1.9300 3.3840 0.0 0.0 1
C_25091 RECT_OPEN 2.2190 2.2310 0.0 0.0 1
C_25092 RECT_OPEN 2.0170 2.3640 0.0 0.0 1
C_25093 RECT_OPEN 1.9220 2.8250 0.0 0.0 1
C_25094 RECT_OPEN 1.9690 1.7690 0.0 0.0 1
C_25095 RECT_OPEN 1.9100 8.1780 0.0 0.0 1
C_25096 RECT_OPEN 2.0020 2.3040 0.0 0.0 1
C_25097 RECT_CLOSED 2.2050 7.3210 0.0 0.0 1
C_25098 RECT_OPEN 2.2340 7.3210 0.0 0.0 1
C_25099 RECT_OPEN 2.3960 7.0000 0.0 0.0 1
C_25100 RECT_OPEN 1.8600 7.0000 0.0 0.0 1
C_25101 RECT_OPEN 1.8410 7.0000 0.0 0.0 1
C_25102 RECT_CLOSED 3.6400 3.0000 0.0 0.0 1
C_25103 RECT_CLOSED 3.0550 3.0000 0.0 0.0 1
C_25104 RECT_CLOSED 3.0120 3.0000 0.0 0.0 1
C_25105 RECT_CLOSED 3.1950 3.0000 0.0 0.0 1
C_25106 RECT_CLOSED 3.1860 3.0000 0.0 0.0 1
C_25107 RECT_OPEN 1.9280 2.7000 0.0 0.0 1
C_25108 RECT_OPEN 3.0210 3.0000 0.0 0.0 1
C_25109 RECT_OPEN 2.8530 3.0000 0.0 0.0 1
C_25110 RECT_CLOSED 2.8510 3.0000 0.0 0.0 1
C_25111 RECT_CLOSED 2.7850 3.0000 0.0 0.0 1
C_25112 RECT_OPEN 2.5270 3.0000 0.0 0.0 1
C_25113 RECT_CLOSED 2.2470 6.0000 0.0 0.0 1
C_25114 RECT_OPEN 1.7300 2.7000 0.0 0.0 1
C_25115 RECT_OPEN 2.0360 6.1980 0.0 0.0 1
C_25116 RECT_OPEN 1.9580 6.1400 0.0 0.0 1
C_25117 RECT_OPEN 2.0500 5.3280 0.0 0.0 1
C_25118 RECT_OPEN 2.3180 2.7000 0.0 0.0 1
C_25119 RECT_OPEN 2.7270 3.0000 0.0 0.0 1
C_25120 RECT_OPEN 2.8060 3.0000 0.0 0.0 1
C_25121 RECT_OPEN 2.0120 6.9340 0.0 0.0 1
C_25122 RECT_OPEN 2.0340 5.9930 0.0 0.0 1
C_25123 RECT_OPEN 1.9560 7.7180 0.0 0.0 1
C_25124 RECT_OPEN 2.0020 7.3910 0.0 0.0 1
C_25125 RECT_OPEN 1.8800 5.7650 0.0 0.0 1
C_25126 RECT_CLOSED 3.2790 6.0000 0.0 0.0 1
C_25127 RECT_CLOSED 3.0990 6.0000 0.0 0.0 1
C_25128 RECT_OPEN 2.8560 6.0000 0.0 0.0 1
C_25129 RECT_OPEN 2.5530 6.0000 0.0 0.0 1
C_25130 RECT_OPEN 3.0160 3.0000 0.0 0.0 1
C_25131 RECT_OPEN 3.0250 3.1100 0.0 0.0 1
C_25132 RECT_OPEN 2.9600 3.0000 0.0 0.0 1
C_25133 RECT_OPEN 2.7560 6.0000 0.0 0.0 1
C_25134 RECT_OPEN 2.6810 6.0000 0.0 0.0 1
C_25135 RECT_OPEN 2.6140 6.0000 0.0 0.0 1
C_25136 RECT_OPEN 1.8290 6.6360 0.0 0.0 1
C_25137 RECT_OPEN 1.8000 4.4320 0.0 0.0 1
C_25138 RECT_OPEN 1.8020 5.6440 0.0 0.0 1
C_25139 RECT_OPEN 1.9330 4.6580 0.0 0.0 1
C_25140 RECT_CLOSED 2.7430 3.0000 0.0 0.0 1
C_25141 RECT_OPEN 2.8200 3.0000 0.0 0.0 1
C_25142 RECT_OPEN 2.5490 3.0000 0.0 0.0 1
C_25143 RECT_OPEN 2.6040 3.0000 0.0 0.0 1
C_25144 RECT_CLOSED 3.0230 6.0000 0.0 0.0 1
C_25145 RECT_CLOSED 3.3530 6.0000 0.0 0.0 1
C_25146 RECT_CLOSED 3.0630 6.0000 0.0 0.0 1
C_25147 RECT_OPEN 2.0750 4.7500 0.0 0.0 1
C_25148 RECT_OPEN 2.0970 6.0730 0.0 0.0 1
C_25149 RECT_OPEN 2.3220 6.3140 0.0 0.0 1
C_25150 RECT_OPEN 2.1310 6.1510 0.0 0.0 1
C_25151 RECT_OPEN 2.6990 3.0000 0.0 0.0 1
C_25152 RECT_OPEN 2.6840 3.0000 0.0 0.0 1
C_25153 RECT_CLOSED 2.2230 3.0000 0.0 0.0 1
C_25154 RECT_CLOSED 3.3940 13.0000 0.0 0.0 1
C_25155 RECT_CLOSED 3.5520 13.0000 0.0 0.0 1
C_25156 RECT_CLOSED 3.7130 13.0000 0.0 0.0 1
C_25157 RECT_OPEN 3.7510 10.0000 0.0 0.0 1
C_25158 RECT_OPEN 3.7960 10.0000 0.0 0.0 1
C_25159 RECT_OPEN 3.6290 10.0000 0.0 0.0 1
C_25160 RECT_OPEN 3.7670 10.0000 0.0 0.0 1
C_25161 RECT_OPEN 1.9900 3.0000 0.0 0.0 1
C_25162 RECT_OPEN 1.9900 3.0000 0.0 0.0 1
C_25163 RECT_OPEN 1.9900 3.0000 0.0 0.0 1
C_25164 RECT_OPEN 2.2410 3.0000 0.0 0.0 1
C_25165 RECT_OPEN 1.9900 3.0000 0.0 0.0 1
C_25166 RECT_OPEN 1.9900 3.0000 0.0 0.0 1
C_25167 RECT_OPEN 1.9900 3.0000 0.0 0.0 1
C_25168 RECT_OPEN 1.9900 3.0000 0.0 0.0 1
C_25169 RECT_OPEN 1.9900 3.0000 0.0 0.0 1
C_25170 RECT_OPEN 2.1050 3.0000 0.0 0.0 1
C_25171 RECT_CLOSED 2.4880 3.0000 0.0 0.0 1
C_25172 RECT_CLOSED 2.7900 3.0000 0.0 0.0 1
C_25173 RECT_CLOSED 2.4460 3.0000 0.0 0.0 1
C_25174 RECT_CLOSED 3.0210 3.0000 0.0 0.0 1
C_25175 RECT_CLOSED 2.8740 3.0000 0.0 0.0 1
C_25176 RECT_CLOSED 2.8310 3.0000 0.0 0.0 1
C_25177 RECT_CLOSED 2.2620 3.0000 0.0 0.0 1
C_25178 RECT_CLOSED 2.2760 3.0000 0.0 0.0 1
C_25179 RECT_OPEN 1.9560 3.0000 0.0 0.0 1
C_25180 RECT_CLOSED 2.5580 3.0000 0.0 0.0 1
C_25181 RECT_OPEN 1.9650 3.0000 0.0 0.0 1
C_25182 RECT_OPEN 2.0530 3.0000 0.0 0.0 1
C_25183 RECT_OPEN 2.1850 3.0000 0.0 0.0 1
C_25184 RECT_CLOSED 2.6670 3.0000 0.0 0.0 1
C_25185 RECT_CLOSED 2.7450 3.0000 0.0 0.0 1
C_25186 RECT_CLOSED 2.7790 3.0000 0.0 0.0 1
C_25187 RECT_CLOSED 2.8070 3.0000 0.0 0.0 1
C_25188 RECT_CLOSED 2.3760 3.0000 0.0 0.0 1
C_25189 RECT_OPEN 3.1600 3.6000 0.0 0.0 1
C_25190 RECT_OPEN 3.0730 3.6000 0.0 0.0 1
C_25191 RECT_OPEN 2.9770 3.6000 0.0 0.0 1
C_25192 RECT_OPEN 2.8530 3.6000 0.0 0.0 1
C_25193 RECT_OPEN 2.8460 3.6000 0.0 0.0 1
C_25194 RECT_CLOSED 2.5570 3.0000 0.0 0.0 1
C_25195 RECT_CLOSED 2.4950 3.0000 0.0 0.0 1
C_25196 RECT_OPEN 3.1960 4.5000 0.0 0.0 1
C_25197 RECT_OPEN 3.3220 4.5000 0.0 0.0 1
C_25198 RECT_OPEN 3.4700 4.5000 0.0 0.0 1
C_25199 RECT_OPEN 2.8880 3.6000 0.0 0.0 1
C_25200 RECT_OPEN 3.1240 4.5000 0.0 0.0 1
C_25201 RECT_OPEN 3.3010 4.5000 0.0 0.0 1
C_25202 RECT_OPEN 3.2850 4.5000 0.0 0.0 1
C_25203 RECT_OPEN 3.1750 4.5000 0.0 0.0 1
C_25204 RECT_OPEN 3.3120 4.5000 0.0 0.0 1
C_25205 RECT_CLOSED 3.0050 5.0000 0.0 0.0 1
C_25206 RECT_OPEN 3.0830 4.5000 0.0 0.0 1
C_25207 RECT_CLOSED 2.8780 4.0000 0.0 0.0 1
C_25208 RECT_CLOSED 3.3560 5.0000 0.0 0.0 1
C_25209 RECT_OPEN 3.3100 5.0000 0.0 0.0 1
C_25210 RECT_OPEN 2.5580 6.2730 0.0 0.0 1
C_25211 RECT_OPEN 2.5920 5.8820 0.0 0.0 1
C_25212 RECT_OPEN 2.6550 6.0770 0.0 0.0 1
C_25213 RECT_OPEN 2.6640 6.0750 0.0 0.0 1
C_25214 RECT_OPEN 3.2630 10.0000 0.0 0.0 1
C_25215 RECT_OPEN 3.3610 10.0000 0.0 0.0 1
C_25216 RECT_OPEN 3.4100 10.0000 0.0 0.0 1
C_25217 RECT_OPEN 3.3820 10.0000 0.0 0.0 1
C_25218 RECT_OPEN 3.2780 10.0000 0.0 0.0 1
C_25219 RECT_OPEN 3.9120 8.0000 0.0 0.0 1
C_25220 RECT_OPEN 3.7490 8.0000 0.0 0.0 1
C_25221 RECT_OPEN 3.3390 8.0000 0.0 0.0 1
C_25222 RECT_OPEN 3.7690 8.0000 0.0 0.0 1
C_25223 RECT_OPEN 3.8580 7.0000 0.0 0.0 1
C_25224 RECT_CLOSED 3.8810 10.8000 0.0 0.0 1
C_25225 RECT_OPEN 3.6330 7.0000 0.0 0.0 1
C_25226 RECT_OPEN 4.4140 7.0000 0.0 0.0 1
C_25227 RECT_CLOSED 3.5910 6.0000 0.0 0.0 1
C_25228 RECT_CLOSED 3.3890 6.0000 0.0 0.0 1
C_25229 RECT_OPEN 3.3050 6.1130 0.0 0.0 1
C_25230 RECT_CLOSED 3.6030 6.0000 0.0 0.0 1
C_25231 RECT_OPEN 2.6220 6.0770 0.0 0.0 1
C_25232 RECT_OPEN 2.6860 6.0490 0.0 0.0 1
C_25233 RECT_OPEN 2.7070 5.9540 0.0 0.0 1
C_25234 RECT_OPEN 3.3230 5.0000 0.0 0.0 1
C_25235 RECT_OPEN 3.2000 5.0000 0.0 0.0 1
C_25236 RECT_OPEN 2.7030 6.1600 0.0 0.0 1
C_25237 RECT_OPEN 2.9710 6.1130 0.0 0.0 1
C_25238 RECT_OPEN 3.0440 5.0000 0.0 0.0 1
C_25239 RECT_OPEN 3.1400 5.0000 0.0 0.0 1
C_25240 RECT_OPEN 2.9790 5.0000 0.0 0.0 1
C_25241 RECT_OPEN 2.7870 5.0000 0.0 0.0 1
C_25242 RECT_OPEN 3.3890 10.0000 0.0 0.0 1
C_25243 RECT_OPEN 3.1280 10.0000 0.0 0.0 1
C_25244 RECT_OPEN 3.1600 10.0000 0.0 0.0 1
C_25245 RECT_OPEN 3.9870 10.0000 0.0 0.0 1
C_25246 RECT_OPEN 3.5690 10.0000 0.0 0.0 1
C_25247 RECT_OPEN 3.5210 10.0000 0.0 0.0 1
C_25248 RECT_OPEN 3.7010 10.0000 0.0 0.0 1
C_25249 RECT_OPEN 3.6410 10.0000 0.0 0.0 1
C_25250 RECT_OPEN 3.8630 10.0000 0.0 0.0 1
C_25251 RECT_OPEN 3.8270 10.0000 0.0 0.0 1
C_25252 RECT_CLOSED 3.9000 10.8000 0.0 0.0 1
C_25253 RECT_OPEN 3.0750 10.0000 0.0 0.0 1
C_25254 RECT_OPEN 3.0380 6.0000 0.0 0.0 1
C_25255 RECT_OPEN 3.0310 10.0000 0.0 0.0 1
C_25256 RECT_OPEN 3.3830 8.0000 0.0 0.0 1
C_25257 RECT_OPEN 3.5020 8.0000 0.0 0.0 1
C_25258 RECT_OPEN 4.1090 6.0000 0.0 0.0 1
C_25259 RECT_OPEN 4.1760 6.0000 0.0 0.0 1
C_25260 RECT_OPEN 4.0590 6.0000 0.0 0.0 1
C_25261 RECT_OPEN 4.0270 6.0000 0.0 0.0 1
C_25262 RECT_OPEN 3.9380 6.0000 0.0 0.0 1
C_25263 RECT_OPEN 1.9980 5.0000 0.0 0.0 1
C_25264 RECT_CLOSED 2.0000 2.0000 0.0 0.0 1
C_25265 RECT_CLOSED 4.8580 6.0000 0.0 0.0 1
C_25266 RECT_CLOSED 4.6330 6.0000 0.0 0.0 1
C_25267 RECT_CLOSED 4.4810 6.0000 0.0 0.0 1
C_25268 RECT_CLOSED 3.8300 6.0000 0.0 0.0 1
C_25269 RECT_CLOSED 4.0790 6.0000 0.0 0.0 1
C_25270 RECT_OPEN 2.8620 5.0000 0.0 0.0 1
C_25271 RECT_OPEN 2.9620 5.0000 0.0 0.0 1
C_25272 RECT_OPEN 3.0470 5.0000 0.0 0.0 1
C_25273 RECT_CLOSED 2.1980 2.5000 0.0 0.0 1
C_25274 RECT_CLOSED 2.5920 2.5000 0.0 0.0 1
C_25275 RECT_CLOSED 2.2100 2.5000 0.0 0.0 1
C_25276 RECT_CLOSED 3.0850 8.0000 0.0 0.0 1
C_25277 RECT_CLOSED 3.1390 3.6000 0.0 0.0 1
C_25278 RECT_CLOSED 3.1960 3.6000 0.0 0.0 1
C_25279 RECT_OPEN 3.3720 3.6000 0.0 0.0 1
C_25280 RECT_CLOSED 3.1110 8.0000 0.0 0.0 1
C_25281 RECT_OPEN 1.9260 3.0300 0.0 0.0 1
C_25282 RECT_OPEN 1.4140 3.1470 0.0 0.0 1
C_25283 RECT_OPEN 1.9980 3.0300 0.0 0.0 1
C_25284 RECT_OPEN 2.7590 3.0300 0.0 0.0 1
C_25285 RECT_OPEN 2.5250 3.6000 0.0 0.0 1
C_25286 RECT_OPEN 2.8120 3.6000 0.0 0.0 1
C_25287 RECT_OPEN 3.2940 3.6000 0.0 0.0 1
C_25288 RECT_CLOSED 3.4930 4.5000 0.0 0.0 1
C_25289 RECT_OPEN 3.4330 3.5000 0.0 0.0 1
C_25290 RECT_OPEN 3.1630 3.5000 0.0 0.0 1
C_25291 RECT_OPEN 3.0720 3.5000 0.0 0.0 1
C_25292 RECT_OPEN 3.1080 3.5000 0.0 0.0 1
C_25293 RECT_OPEN 2.5960 3.0300 0.0 0.0 1
C_25294 RECT_OPEN 3.1230 3.0300 0.0 0.0 1
C_25295 RECT_OPEN 3.2570 3.0300 0.0 0.0 1
C_25296 RECT_OPEN 2.7420 3.0300 0.0 0.0 1
C_25297 RECT_OPEN 2.6890 4.0000 0.0 0.0 1
C_25298 RECT_OPEN 2.8980 5.0000 0.0 0.0 1
C_25299 RECT_OPEN 2.9610 4.0000 0.0 0.0 1
C_25300 RECT_OPEN 2.7720 4.0000 0.0 0.0 1
C_25301 RECT_OPEN 2.9150 5.0000 0.0 0.0 1
C_25302 RECT_OPEN 3.1030 5.0000 0.0 0.0 1
C_25303 RECT_OPEN 2.5510 3.5000 0.0 0.0 1
C_25304 RECT_OPEN 2.7470 4.0000 0.0 0.0 1
C_25305 RECT_OPEN 2.0980 3.5000 0.0 0.0 1
C_25306 RECT_OPEN 2.1650 3.5000 0.0 0.0 1
C_25307 RECT_OPEN 2.2800 3.5000 0.0 0.0 1
C_26390 RECT_CLOSED 3.2920 4.0000 0.0 0.0 1
C_26391 RECT_CLOSED 3.2670 4.0000 0.0 0.0 1
C_26392 RECT_CLOSED 3.2560 4.0000 0.0 0.0 1
C_26393 RECT_CLOSED 3.2950 4.0000 0.0 0.0 1
C_26394 RECT_CLOSED 3.3340 4.0000 0.0 0.0 1
C_26395 RECT_CLOSED 3.3020 4.0000 0.0 0.0 1
C_26396 RECT_CLOSED 3.2860 4.0000 0.0 0.0 1
C_26401 RECT_CLOSED 3.1720 4.0000 0.0 0.0 1
C_26402 RECT_CLOSED 3.2190 4.0000 0.0 0.0 1
C_26403 RECT_CLOSED 3.3160 4.0000 0.0 0.0 1
C_26404 RECT_OPEN 2.4590 6.0000 0.0 0.0 1
C_26405 RECT_OPEN 2.4960 6.0000 0.0 0.0 1
C_26406 RECT_CLOSED 3.2270 4.0000 0.0 0.0 1
C_26410 RECT_OPEN 2.4580 6.0000 0.0 0.0 1
C_26411 RECT_OPEN 2.6690 6.0000 0.0 0.0 1
C_26412 RECT_OPEN 2.7830 6.0000 0.0 0.0 1
C_26413 RECT_OPEN 2.8900 6.0000 0.0 0.0 1
C_26414 RECT_OPEN 2.8890 6.0000 0.0 0.0 1
C_26415 RECT_OPEN 3.6120 6.0000 0.0 0.0 1
C_26418 RECT_OPEN 3.6240 6.0000 0.0 0.0 1
C_26419 RECT_OPEN 3.6380 6.0000 0.0 0.0 1
C_26420 RECT_OPEN 3.6430 6.0000 0.0 0.0 1
C_26421 RECT_OPEN 3.6480 6.0000 0.0 0.0 1
C_26422 RECT_OPEN 3.6660 6.0000 0.0 0.0 1
C_26423 RECT_OPEN 3.6540 6.0000 0.0 0.0 1
C_26428 RECT_OPEN 3.6430 6.0000 0.0 0.0 1
C_26429 RECT_OPEN 3.7110 6.0000 0.0 0.0 1
C_26430 RECT_CLOSED 3.5340 8.0000 0.0 0.0 1
C_26431 RECT_OPEN 4.0470 8.0000 0.0 0.0 1
C_26432 RECT_OPEN 3.3200 8.0000 0.0 0.0 1
C_26433 RECT_OPEN 4.4470 55.0000 0.0 0.0 1
C_26434 RECT_OPEN 4.3970 55.0000 0.0 0.0 1
C_26436 RECT_CLOSED 4.0000 55.0000 0.0 0.0 1
C_26437 RECT_OPEN 4.5000 55.0000 0.0 0.0 1
C_26446 RECT_CLOSED 3.5000 8.2500 0.0 0.0 1
C_26447 RECT_CLOSED 3.5000 8.2500 0.0 0.0 1
C_26448 RECT_OPEN 3.8000 8.2500 0.0 0.0 1
C_26449 RECT_OPEN 3.8070 8.2500 0.0 0.0 1
C_26450 RECT_OPEN 2.7380 2.5000 0.0 0.0 1
C_26451 RECT_CLOSED 3.0940 2.5000 0.0 0.0 1
C_26452 RECT_OPEN 2.4280 2.5000 0.0 0.0 1
C_26453 RECT_OPEN 3.8070 8.2500 0.0 0.0 1
C_26454 RECT_OPEN 2.4460 2.5000 0.0 0.0 1
C_26456 RECT_OPEN 2.2550 2.5000 0.0 0.0 1
C_26457 RECT_OPEN 3.8260 8.2500 0.0 0.0 1
C_26459 RECT_OPEN 3.8230 8.2500 0.0 0.0 1
C_26460 RECT_OPEN 2.1790 2.5000 0.0 0.0 1
C_26461 RECT_OPEN 2.2110 2.5000 0.0 0.0 1
C_26462 RECT_OPEN 2.2150 2.5000 0.0 0.0 1
C_26463 RECT_OPEN 2.4800 2.5000 0.0 0.0 1
C_26464 RECT_OPEN 2.7390 2.5000 0.0 0.0 1
C_26465 RECT_OPEN 4.3170 8.2500 0.0 0.0 1
C_26466 RECT_OPEN 3.7940 8.2500 0.0 0.0 1
C_26467 RECT_OPEN 3.8020 8.2500 0.0 0.0 1
C_26468 RECT_OPEN 3.8910 8.2500 0.0 0.0 1
C_26469 RECT_OPEN 3.8320 8.2500 0.0 0.0 1
C_26470 RECT_OPEN 3.8160 8.2500 0.0 0.0 1
C_26471 RECT_OPEN 3.8250 8.2500 0.0 0.0 1
C_26473 RECT_OPEN 3.8370 8.4000 0.0 0.0 1
C_26474 RECT_OPEN 3.3390 11.0000 0.0 0.0 1
C_26475 RECT_OPEN 3.4300 11.0000 0.0 0.0 1
C_26476 RECT_OPEN 3.3620 11.0000 0.0 0.0 1
C_26477 RECT_OPEN 3.3830 11.0000 0.0 0.0 1
C_26478 RECT_OPEN 3.1280 11.0000 0.0 0.0 1
C_26479 RECT_OPEN 2.6260 5.0000 0.0 0.0 1
C_26480 RECT_OPEN 2.5310 5.0000 0.0 0.0 1
C_26481 RECT_OPEN 2.3320 5.0000 0.0 0.0 1
C_26482 RECT_OPEN 2.3640 5.0000 0.0 0.0 1
C_26483 RECT_OPEN 2.7350 5.0000 0.0 0.0 1
C_26484 RECT_OPEN 2.7870 5.0000 0.0 0.0 1
C_26485 RECT_OPEN 2.5080 5.0000 0.0 0.0 1
C_26486 RECT_OPEN 2.5390 5.0000 0.0 0.0 1
C_26487 RECT_OPEN 3.3040 11.0000 0.0 0.0 1
C_26488 RECT_OPEN 3.2950 11.0000 0.0 0.0 1
C_26489 RECT_OPEN 3.2070 11.0000 0.0 0.0 1
C_26490 RECT_OPEN 3.1210 11.0000 0.0 0.0 1
C_26491 RECT_OPEN 3.0720 11.0000 0.0 0.0 1
C_26493 RECT_OPEN 3.0330 11.0000 0.0 0.0 1
C_26494 RECT_OPEN 3.2650 11.0000 0.0 0.0 1
C_26495 RECT_OPEN 3.3960 11.0000 0.0 0.0 1
C_26496 RECT_OPEN 3.3970 11.0000 0.0 0.0 1
C_26497 RECT_OPEN 3.3950 11.0000 0.0 0.0 1
C_26498 RECT_OPEN 3.4960 11.0000 0.0 0.0 1
C_26499 RECT_OPEN 3.6670 11.0000 0.0 0.0 1
C_26500 RECT_OPEN 3.4480 11.0000 0.0 0.0 1
C_26501 RECT_OPEN 2.9890 11.0000 0.0 0.0 1
C_26502 RECT_OPEN 3.0810 11.0000 0.0 0.0 1
C_26503 RECT_OPEN 3.2520 11.0000 0.0 0.0 1
C_26504 RECT_OPEN 4.3380 55.0000 0.0 0.0 1
C_26508 RECT_OPEN 3.5930 11.0000 0.0 0.0 1
C_26509 RECT_OPEN 3.5550 11.0000 0.0 0.0 1
C_26510 RECT_OPEN 3.8160 11.0000 0.0 0.0 1
C_26511 RECT_OPEN 3.8580 11.0000 0.0 0.0 1
C_26512 RECT_OPEN 2.9830 2.6000 0.0 0.0 1
C_26513 RECT_CLOSED 5.0000 11.0000 0.0 0.0 1
C_26514 RECT_OPEN 2.7430 2.6000 0.0 0.0 1
C_26515 RECT_OPEN 2.7660 2.6000 0.0 0.0 1
C_26516 RECT_CLOSED 5.0000 11.0000 0.0 0.0 1
C_26517 RECT_OPEN 2.7580 2.6000 0.0 0.0 1
C_26518 RECT_OPEN 4.2460 55.0000 0.0 0.0 1
C_26519 RECT_OPEN 2.5000 3.0000 0.0 0.0 1
C_26520 RECT_OPEN 4.1600 55.0000 0.0 0.0 1
C_26521 RECT_OPEN 3.7630 11.0000 0.0 0.0 1
C_26522 RECT_OPEN 3.3710 11.0000 0.0 0.0 1
C_26523 RECT_OPEN 3.5700 11.0000 0.0 0.0 1
C_26524 RECT_OPEN 4.0950 55.0000 0.0 0.0 1
C_26525 RECT_OPEN 2.9930 2.6000 0.0 0.0 1
C_26526 RECT_OPEN 3.0000 2.6000 0.0 0.0 1
C_26527 RECT_OPEN 2.5910 2.6000 0.0 0.0 1
C_26528 RECT_OPEN 2.7910 2.6000 0.0 0.0 1
C_26529 RECT_OPEN 3.2320 2.6000 0.0 0.0 1
C_26530 RECT_OPEN 2.6410 2.6000 0.0 0.0 1
C_26531 RECT_OPEN 2.6600 2.6000 0.0 0.0 1
C_26532 RECT_OPEN 2.6520 2.6000 0.0 0.0 1
C_26533 RECT_OPEN 2.5860 2.6000 0.0 0.0 1
C_26534 RECT_OPEN 2.5840 2.6000 0.0 0.0 1
C_26535 RECT_OPEN 4.0600 55.0000 0.0 0.0 1
C_26536 RECT_CLOSED 4.0100 50.0000 0.0 0.0 1
C_26537 RECT_OPEN 3.2640 2.6000 0.0 0.0 1
C_26538 RECT_OPEN 2.5000 2.6000 0.0 0.0 1
C_26539 RECT_OPEN 4.0000 50.0000 0.0 0.0 1
C_26540 RECT_OPEN 2.2720 4.5000 0.0 0.0 1
C_26541 RECT_OPEN 1.5910 3.5000 0.0 0.0 1
C_26542 RECT_CLOSED 2.2610 4.5000 0.0 0.0 1
C_26543 RECT_OPEN 2.3820 4.5000 0.0 0.0 1
C_26544 RECT_OPEN 1.3480 3.5000 0.0 0.0 1
C_26545 RECT_OPEN 1.5300 3.5000 0.0 0.0 1
C_26546 RECT_OPEN 2.4420 4.5000 0.0 0.0 1
C_26547 RECT_CLOSED 2.6110 4.5000 0.0 0.0 1
C_26548 RECT_OPEN 2.6260 4.5000 0.0 0.0 1
C_26549 RECT_OPEN 2.2890 7.0000 0.0 0.0 1
C_26550 RECT_OPEN 2.6250 3.5000 0.0 0.0 1
C_26551 RECT_OPEN 2.4560 3.5000 0.0 0.0 1
C_26552 RECT_OPEN 2.4450 3.5000 0.0 0.0 1
C_26553 RECT_OPEN 2.6130 3.5000 0.0 0.0 1
C_26554 RECT_OPEN 2.5650 3.5000 0.0 0.0 1
C_26555 RECT_OPEN 2.5000 3.5000 0.0 0.0 1
C_26556 RECT_OPEN 2.5110 3.5000 0.0 0.0 1
C_26557 RECT_OPEN 2.3670 3.5000 0.0 0.0 1
C_26558 RECT_OPEN 2.4530 3.5000 0.0 0.0 1
C_26559 RECT_OPEN 2.2850 3.5000 0.0 0.0 1
C_26562 CIRCULAR 0.6000 0.6000 0.0 0.0 1
C_26564 RECT_CLOSED 2.2680 7.0000 0.0 0.0 1
C_26565 RECT_OPEN 2.5280 7.0000 0.0 0.0 1
C_26566 RECT_OPEN 2.0950 7.0000 0.0 0.0 1
C_26567 RECT_OPEN 2.2430 4.5000 0.0 0.0 1
C_26568 RECT_OPEN 2.4030 4.5000 0.0 0.0 1
C_26569 RECT_OPEN 2.7160 3.5000 0.0 0.0 1
C_26571 RECT_OPEN 2.5110 5.0000 0.0 0.0 1
C_26572 RECT_OPEN 2.4830 5.0000 0.0 0.0 1
C_26573 RECT_OPEN 2.6540 5.0000 0.0 0.0 1
C_26574 RECT_OPEN 2.5260 5.0000 0.0 0.0 1
C_26575 RECT_OPEN 2.5970 5.0000 0.0 0.0 1
C_26576 RECT_OPEN 2.5680 5.0000 0.0 0.0 1
C_26577 RECT_OPEN 2.5400 5.0000 0.0 0.0 1
C_26578 RECT_OPEN 2.5110 5.0000 0.0 0.0 1
C_26579 RECT_OPEN 2.4820 5.0000 0.0 0.0 1
C_26580 RECT_OPEN 2.0540 6.0000 0.0 0.0 1
C_26581 RECT_OPEN 2.3610 4.5000 0.0 0.0 1
C_26582 RECT_OPEN 2.5750 6.0000 0.0 0.0 1
C_26583 RECT_OPEN 2.3640 2.9000 0.0 0.0 1
C_26584 RECT_OPEN 2.5020 2.9000 0.0 0.0 1
C_26585 RECT_OPEN 2.3250 2.9000 0.0 0.0 1
C_26586 RECT_OPEN 2.4430 2.9000 0.0 0.0 1
C_26587 RECT_OPEN 2.2770 2.9000 0.0 0.0 1
C_26588 RECT_OPEN 2.2740 2.9000 0.0 0.0 1
C_26589 RECT_OPEN 2.2800 2.9000 0.0 0.0 1
C_26590 RECT_OPEN 2.2210 2.9000 0.0 0.0 1
C_26591 RECT_OPEN 2.2960 2.9000 0.0 0.0 1
C_26592 RECT_OPEN 2.0330 2.9000 0.0 0.0 1
C_26593 RECT_OPEN 1.8390 2.9000 0.0 0.0 1
C_26594 RECT_OPEN 2.6650 2.9000 0.0 0.0 1
C_26595 RECT_OPEN 2.6460 2.9000 0.0 0.0 1
C_26596 RECT_OPEN 2.6030 2.9000 0.0 0.0 1
C_26597 RECT_OPEN 2.5200 2.9000 0.0 0.0 1
C_26598 RECT_OPEN 2.5150 2.9000 0.0 0.0 1
C_26599 RECT_OPEN 2.4120 2.9000 0.0 0.0 1
C_26600 RECT_OPEN 2.3160 2.9000 0.0 0.0 1
C_26601 RECT_OPEN 2.2480 2.9000 0.0 0.0 1
C_26602 RECT_OPEN 3.4380 6.5000 0.0 0.0 1
C_26603 RECT_OPEN 3.5030 6.5000 0.0 0.0 1
C_26604 CIRCULAR 0.6000 0.6000 0.0 0.0 1
C_26605 RECT_OPEN 3.5550 6.5000 0.0 0.0 1
C_26606 RECT_OPEN 3.6000 6.5000 0.0 0.0 1
C_26607 RECT_OPEN 3.6660 6.5000 0.0 0.0 1
C_26608 RECT_OPEN 3.7190 6.5000 0.0 0.0 1
C_26609 RECT_OPEN 3.7700 6.5000 0.0 0.0 1
C_26610 RECT_OPEN 3.8680 6.5000 0.0 0.0 1
C_26611 RECT_OPEN 3.8360 6.5000 0.0 0.0 1
C_26612 RECT_OPEN 3.8540 6.5000 0.0 0.0 1
C_26613 RECT_OPEN 3.8850 6.5000 0.0 0.0 1
C_26614 RECT_OPEN 3.8230 6.5000 0.0 0.0 1
C_26615 RECT_OPEN 3.8080 6.5000 0.0 0.0 1
C_26616 RECT_CLOSED 3.8430 6.5000 0.0 0.0 1
C_26617 RECT_OPEN 3.8770 6.5000 0.0 0.0 1
C_26618 RECT_OPEN 3.9350 6.5000 0.0 0.0 1
C_26619 RECT_OPEN 3.9390 6.5000 0.0 0.0 1
C_26620 RECT_OPEN 4.0260 6.5000 0.0 0.0 1
C_26621 RECT_OPEN 3.9910 6.5000 0.0 0.0 1
C_26622 RECT_OPEN 3.9830 6.5000 0.0 0.0 1
C_26623 RECT_CLOSED 3.9730 12.0000 0.0 0.0 1
C_26624 RECT_OPEN 2.4380 2.6000 0.0 0.0 1
C_26625 RECT_OPEN 2.4380 2.6000 0.0 0.0 1
C_26626 RECT_OPEN 1.9230 2.6000 0.0 0.0 1
C_26627 RECT_OPEN 2.0770 2.6000 0.0 0.0 1
C_26628 RECT_OPEN 1.7370 2.6000 0.0 0.0 1
C_26629 RECT_OPEN 4.1060 12.0000 0.0 0.0 1
C_26630 RECT_OPEN 4.1470 12.0000 0.0 0.0 1
C_26631 RECT_OPEN 4.0970 12.0000 0.0 0.0 1
C_26632 RECT_OPEN 4.1240 12.0000 0.0 0.0 1
C_26633 RECT_OPEN 3.7940 50.0000 0.0 0.0 1
C_26634 RECT_OPEN 4.1020 12.0000 0.0 0.0 1
C_26635 RECT_OPEN 4.1000 12.0000 0.0 0.0 1
C_26636 RECT_OPEN 3.6490 50.0000 0.0 0.0 1
C_26637 RECT_OPEN 3.7060 50.0000 0.0 0.0 1
C_26638 RECT_OPEN 3.3980 23.0000 0.0 0.0 1
C_26646 RECT_OPEN 1.1600 2.0000 0.0 0.0 1
C_26647 RECT_CLOSED 1.2470 4.0000 0.0 0.0 1
C_26648 RECT_OPEN 1.2490 4.0000 0.0 0.0 1
C_26651 RECT_OPEN 1.1430 4.2210 0.0 0.0 1
C_26659 RECT_OPEN 1.1000 4.1450 0.0 0.0 1
C_26660 RECT_OPEN 1.1000 4.1900 0.0 0.0 1
C_26661 RECT_CLOSED 1.5340 5.3000 0.0 0.0 1
C_26662 RECT_OPEN 1.6270 5.3000 0.0 0.0 1
C_26664 RECT_OPEN 1.3600 1.9220 0.0 0.0 1
C_26669 RECT_OPEN 1.3540 1.7900 0.0 0.0 1
C_26670 RECT_OPEN 1.3610 1.9280 0.0 0.0 1
C_26671 RECT_OPEN 1.5370 1.8090 0.0 0.0 1
C_26679 RECT_OPEN 1.0570 1.9670 0.0 0.0 1
C_26680 RECT_OPEN 1.2640 2.0820 0.0 0.0 1
C_26682 RECT_OPEN 1.4110 2.0000 0.0 0.0 1
C_26684 RECT_OPEN 2.0280 2.2960 0.0 0.0 1
C_26692 RECT_OPEN 1.6840 2.0360 0.0 0.0 1
C_26693 RECT_OPEN 1.8210 2.1340 0.0 0.0 1
C_26701 RECT_OPEN 1.4350 2.0760 0.0 0.0 1
C_26702 RECT_OPEN 1.3420 2.1450 0.0 0.0 1
C_26703 RECT_OPEN 1.1480 1.6100 0.0 0.0 1
C_26706 RECT_OPEN 1.5550 2.7770 0.0 0.0 1
C_26713 RECT_OPEN 2.5600 13.0000 0.0 0.0 1
C_26714 RECT_OPEN 3.7060 27.0000 0.0 0.0 1
C_26716 RECT_OPEN 3.6340 27.0000 0.0 0.0 1
C_26717 RECT_OPEN 3.9280 27.0000 0.0 0.0 1
C_26718 RECT_OPEN 3.7610 27.0000 0.0 0.0 1
C_26719 RECT_OPEN 3.7060 27.0000 0.0 0.0 1
C_26720 RECT_OPEN 3.9100 27.0000 0.0 0.0 1
C_26721 RECT_OPEN 3.9530 27.0000 0.0 0.0 1
C_26722 RECT_OPEN 3.9970 27.0000 0.0 0.0 1
C_26723 RECT_OPEN 3.5920 27.0000 0.0 0.0 1
C_26724 RECT_OPEN 3.6890 27.0000 0.0 0.0 1
C_26725 RECT_OPEN 3.5550 27.0000 0.0 0.0 1
C_26726 RECT_OPEN 3.5920 27.0000 0.0 0.0 1
C_26727 RECT_OPEN 1.1620 2.0000 0.0 0.0 1
C_26729 RECT_OPEN 1.1500 3.0000 0.0 0.0 1
C_26730 RECT_OPEN 2.8320 22.5000 0.0 0.0 1
C_26731 RECT_OPEN 2.8020 22.5000 0.0 0.0 1
C_26732 RECT_CLOSED 4.3520 22.5000 0.0 0.0 1
C_26733 RECT_OPEN 2.5600 2.5000 0.0 0.0 1
C_26734 RECT_OPEN 3.2560 27.0000 0.0 0.0 1
C_26735 RECT_OPEN 3.2850 32.0000 0.0 0.0 1
C_26736 RECT_OPEN 3.3490 35.0000 0.0 0.0 1
C_26737 RECT_OPEN 3.2350 27.0000 0.0 0.0 1
C_26738 RECT_OPEN 4.8220 4.7000 0.0 0.0 1
C_26739 RECT_OPEN 3.6480 27.0000 0.0 0.0 1
C_26740 RECT_OPEN 2.9180 22.5000 0.0 0.0 1
C_26741 RECT_CLOSED 3.9890 23.0000 0.0 0.0 1
C_26742 RECT_OPEN 4.3500 22.5000 0.0 0.0 1
C_26743 RECT_OPEN 4.0220 22.5000 0.0 0.0 1
C_26744 RECT_OPEN 4.3650 22.5000 0.0 0.0 1
C_26745 RECT_OPEN 3.5890 43.0000 0.0 0.0 1
C_26746 RECT_OPEN 3.5450 38.5000 0.0 0.0 1
C_26747 RECT_OPEN 3.5260 35.0000 0.0 0.0 1
C_26748 RECT_OPEN 3.5000 35.0000 0.0 0.0 1
C_26749 RECT_OPEN 3.4660 32.0000 0.0 0.0 1
C_26750 RECT_OPEN 4.5600 4.7000 0.0 0.0 1
C_26751 RECT_OPEN 4.4730 4.7000 0.0 0.0 1
C_26752 RECT_OPEN 4.1940 4.7000 0.0 0.0 1
C_26753 RECT_OPEN 3.6380 46.0000 0.0 0.0 1
C_26754 RECT_OPEN 3.9300 4.7000 0.0 0.0 1
C_26755 RECT_OPEN 3.8730 4.7000 0.0 0.0 1
C_26756 RECT_OPEN 4.0720 4.7000 0.0 0.0 1
C_26775 RECT_OPEN 2.9320 22.5000 0.0 0.0 1
C_26776 RECT_OPEN 3.8040 22.5000 0.0 0.0 1
C_26777 RECT_OPEN 3.0120 22.5000 0.0 0.0 1
C_26778 RECT_CLOSED 3.7990 22.5000 0.0 0.0 1
C_26779 RECT_OPEN 2.6330 22.5000 0.0 0.0 1
C_26780 RECT_OPEN 2.6550 22.5000 0.0 0.0 1
C_26781 RECT_OPEN 2.7130 22.5000 0.0 0.0 1
C_26782 RECT_OPEN 2.7340 22.5000 0.0 0.0 1
C_26783 RECT_OPEN 2.3740 22.5000 0.0 0.0 1
C_26784 RECT_OPEN 2.7640 22.5000 0.0 0.0 1
C_26785 RECT_OPEN 2.5690 22.5000 0.0 0.0 1
C_26786 RECT_OPEN 2.7340 22.5000 0.0 0.0 1
C_26787 RECT_OPEN 3.0130 22.5000 0.0 0.0 1
C_26788 RECT_OPEN 2.6920 22.5000 0.0 0.0 1
C_26789 RECT_OPEN 2.8910 22.5000 0.0 0.0 1
C_26790 RECT_OPEN 2.7200 22.5000 0.0 0.0 1
C_26793 RECT_OPEN 2.3980 22.5000 0.0 0.0 1
C_26794 RECT_OPEN 2.4370 22.5000 0.0 0.0 1
C_26795 RECT_OPEN 2.2360 22.5000 0.0 0.0 1
C_26796 RECT_OPEN 2.6450 22.5000 0.0 0.0 1
C_26799 RECT_OPEN 2.4340 22.5000 0.0 0.0 1
C_26800 RECT_OPEN 2.3230 22.5000 0.0 0.0 1
C_26801 RECT_OPEN 2.9010 22.5000 0.0 0.0 1
C_26802 RECT_OPEN 2.4800 22.5000 0.0 0.0 1
C_26803 RECT_OPEN 2.6590 22.5000 0.0 0.0 1
C_26804 RECT_OPEN 1.5000 5.2000 0.0 0.0 1
C_26805 RECT_OPEN 1.5000 5.2000 0.0 0.0 1
C_26806 RECT_OPEN 1.5000 5.2000 0.0 0.0 1
C_26807 RECT_OPEN 1.5000 5.2000 0.0 0.0 1
C_26808 RECT_OPEN 1.5000 5.2000 0.0 0.0 1
C_26809 RECT_OPEN 2.2880 4.0160 0.0 0.0 1
C_26810 RECT_OPEN 2.4500 4.1370 0.0 0.0 1
C_26811 RECT_OPEN 2.9490 22.5000 0.0 0.0 1
C_26812 RECT_CLOSED 2.3780 22.5000 0.0 0.0 1
C_26813 RECT_OPEN 1.5000 5.2000 0.0 0.0 1
C_26814 RECT_OPEN 2.8260 22.5000 0.0 0.0 1
C_26815 RECT_OPEN 2.7200 15.0000 0.0 0.0 1
C_26816 RECT_OPEN 2.6170 15.0000 0.0 0.0 1
C_26817 RECT_OPEN 2.3260 3.8480 0.0 0.0 1
C_26818 RECT_OPEN 2.5300 15.0000 0.0 0.0 1
C_26819 RECT_OPEN 1.5000 5.2000 0.0 0.0 1
C_26858 RECT_OPEN 1.5000 5.2000 0.0 0.0 1
C_26859 RECT_CLOSED 1.8930 6.5000 0.0 0.0 1
C_26860 RECT_CLOSED 1.9400 6.5000 0.0 0.0 1
C_26861 RECT_OPEN 3.3010 10.0000 0.0 0.0 1
C_26862 RECT_CLOSED 4.2790 10.0000 0.0 0.0 1
C_26863 RECT_OPEN 2.2280 3.1320 0.0 0.0 1
C_26864 RECT_OPEN 3.2970 10.0000 0.0 0.0 1
C_26887 RECT_OPEN 2.7560 6.5110 0.0 0.0 1
C_26888 RECT_OPEN 2.7860 6.5110 0.0 0.0 1
C_26889 RECT_OPEN 2.8160 6.5110 0.0 0.0 1
C_26890 RECT_OPEN 2.8460 6.4280 0.0 0.0 1
C_26903 RECT_CLOSED 2.0000 3.0000 0.0 0.0 1
C_26904 RECT_CLOSED 2.0000 3.0000 0.0 0.0 1
C_26905 RECT_CLOSED 2.0000 3.0000 0.0 0.0 1
C_26909 RECT_CLOSED 2.0000 3.0000 0.0 0.0 1
C_26910 RECT_CLOSED 2.0000 3.0000 0.0 0.0 1
C_26911 RECT_CLOSED 2.0000 3.0000 0.0 0.0 1
C_26912 RECT_CLOSED 2.0000 3.0000 0.0 0.0 1
C_26913 RECT_CLOSED 2.0000 3.0000 0.0 0.0 1
C_26914 RECT_OPEN 2.7980 4.0000 0.0 0.0 1
C_26915 RECT_OPEN 2.6130 4.0000 0.0 0.0 1
C_26916 RECT_OPEN 2.4990 4.0000 0.0 0.0 1
C_26919 RECT_OPEN 2.4370 4.0000 0.0 0.0 1
C_26920 RECT_OPEN 2.2690 3.0960 0.0 0.0 1
C_26921 RECT_OPEN 2.3820 3.0960 0.0 0.0 1
C_26922 RECT_OPEN 2.6240 3.0960 0.0 0.0 1
C_26923 RECT_OPEN 2.5230 4.0000 0.0 0.0 1
C_26924 RECT_OPEN 1.5000 3.0000 0.0 0.0 1
C_26925 RECT_OPEN 1.5000 3.0000 0.0 0.0 1
C_26926 RECT_OPEN 2.0470 3.0960 0.0 0.0 1
C_26927 RECT_OPEN 2.1530 3.0960 0.0 0.0 1
C_26928 RECT_CLOSED 2.2790 3.0000 0.0 0.0 1
C_26929 RECT_CLOSED 2.1580 3.0000 0.0 0.0 1
C_26930 RECT_OPEN 1.9890 2.9110 0.0 0.0 1
C_26931 RECT_OPEN 2.1980 6.5110 0.0 0.0 1
C_26932 RECT_OPEN 1.8060 6.5110 0.0 0.0 1
C_26933 RECT_OPEN 1.8750 6.5110 0.0 0.0 1
C_26934 RECT_OPEN 1.9440 6.5110 0.0 0.0 1
C_26938 RECT_OPEN 2.0120 6.5110 0.0 0.0 1
C_26939 RECT_OPEN 2.0810 6.5110 0.0 0.0 1
C_26940 RECT_OPEN 2.1500 6.5110 0.0 0.0 1
C_26941 RECT_OPEN 2.2190 6.5110 0.0 0.0 1
C_26944 RECT_OPEN 2.2870 6.5110 0.0 0.0 1
C_26945 RECT_OPEN 2.3560 6.5110 0.0 0.0 1
C_26946 RECT_OPEN 2.4250 6.5110 0.0 0.0 1
C_26947 RECT_OPEN 2.4930 6.5110 0.0 0.0 1
C_26951 RECT_OPEN 2.5620 6.5110 0.0 0.0 1
C_26952 RECT_OPEN 2.6310 6.5110 0.0 0.0 1
C_26953 RECT_OPEN 2.7000 6.5110 0.0 0.0 1
C_26972 RECT_OPEN 4.3870 13.0000 0.0 0.0 1
C_26973 RECT_CLOSED 4.3780 13.0000 0.0 0.0 1
C_26974 RECT_OPEN 4.1540 13.0000 0.0 0.0 1
C_26975 RECT_CLOSED 1.5000 3.0000 0.0 0.0 1
C_26976 RECT_CLOSED 1.5000 3.0000 0.0 0.0 1
C_26977 RECT_OPEN 3.9510 13.0000 0.0 0.0 1
C_26978 RECT_OPEN 3.2580 13.0000 0.0 0.0 1
C_26979 RECT_OPEN 2.0000 5.0000 0.0 0.0 1
C_26991 RECT_OPEN 2.1920 6.9280 0.0 0.0 1
C_26992 RECT_CLOSED 2.2390 6.5000 0.0 0.0 1
C_26993 RECT_OPEN 2.7930 6.5000 0.0 0.0 1
C_26994 RECT_OPEN 2.3470 6.5280 0.0 0.0 1
C_26995 RECT_OPEN 2.4280 6.1130 0.0 0.0 1
C_26996 RECT_OPEN 2.4700 7.0810 0.0 0.0 1
C_26997 RECT_OPEN 2.6960 3.0000 0.0 0.0 1
C_26998 RECT_OPEN 2.7440 3.0000 0.0 0.0 1
C_26999 RECT_OPEN 2.9130 3.0000 0.0 0.0 1
C_27000 RECT_OPEN 3.9320 15.0000 0.0 0.0 1
C_27001 RECT_CLOSED 4.9620 15.0000 0.0 0.0 1
C_27002 RECT_CLOSED 3.8610 13.0000 0.0 0.0 1
C_27003 RECT_OPEN 3.7900 13.0000 0.0 0.0 1
C_27004 RECT_OPEN 3.5830 13.0000 0.0 0.0 1
C_27005 RECT_CLOSED 2.4520 8.3730 0.0 0.0 1
C_27006 RECT_OPEN 3.2740 9.5400 0.0 0.0 1
C_27007 RECT_CLOSED 2.7180 8.0000 0.0 0.0 1
C_27008 RECT_OPEN 2.9110 8.0000 0.0 0.0 1
C_27009 RECT_OPEN 3.2990 8.0000 0.0 0.0 1
C_27010 RECT_OPEN 5.4670 20.0000 0.0 0.0 1
C_27011 RECT_OPEN 5.5830 20.0000 0.0 0.0 1
C_27012 RECT_OPEN 4.8610 20.0000 0.0 0.0 1
C_27013 RECT_OPEN 3.3420 3.0000 0.0 0.0 1
C_27014 RECT_CLOSED 2.9110 3.0000 0.0 0.0 1
C_27015 RECT_OPEN 2.9270 3.8000 0.0 0.0 1
C_27016 RECT_CLOSED 3.1910 3.8000 0.0 0.0 1
C_27017 RECT_OPEN 4.4480 20.0000 0.0 0.0 1
C_27018 RECT_OPEN 4.8480 20.0000 0.0 0.0 1
C_27019 RECT_OPEN 4.9990 20.0000 0.0 0.0 1
C_27020 RECT_OPEN 4.1540 20.0000 0.0 0.0 1
C_27021 RECT_CLOSED 4.4150 20.0000 0.0 0.0 1
C_27022 RECT_OPEN 4.3160 20.0000 0.0 0.0 1
C_27023 RECT_OPEN 4.8300 15.0000 0.0 0.0 1
C_27024 RECT_OPEN 3.6320 15.0000 0.0 0.0 1
C_27025 RECT_OPEN 3.3630 15.0000 0.0 0.0 1
C_27026 RECT_OPEN 3.3820 15.0000 0.0 0.0 1
C_27027 RECT_OPEN 3.5000 15.0000 0.0 0.0 1
C_27028 RECT_OPEN 5.5300 20.0000 0.0 0.0 1
C_27029 RECT_OPEN 6.1220 22.0000 0.0 0.0 1
C_27030 RECT_CLOSED 5.6530 22.0000 0.0 0.0 1
C_27031 RECT_OPEN 4.1980 20.0000 0.0 0.0 1
C_27032 RECT_OPEN 4.4860 10.0000 0.0 0.0 1
C_27033 RECT_OPEN 4.6880 10.0000 0.0 0.0 1
C_27034 RECT_OPEN 5.7610 22.0000 0.0 0.0 1
C_27035 RECT_OPEN 6.3720 22.0000 0.0 0.0 1
C_27036 RECT_OPEN 5.4090 22.0000 0.0 0.0 1
C_27037 RECT_OPEN 4.8790 10.0000 0.0 0.0 1
C_27038 RECT_OPEN 4.7580 10.0000 0.0 0.0 1
C_27039 RECT_OPEN 4.2040 10.0000 0.0 0.0 1
C_27040 RECT_OPEN 4.2960 10.0000 0.0 0.0 1
C_27041 RECT_OPEN 3.9600 10.0000 0.0 0.0 1
C_27042 RECT_OPEN 3.4260 10.0000 0.0 0.0 1
C_27043 RECT_OPEN 3.5760 10.0000 0.0 0.0 1
C_27044 RECT_OPEN 3.3630 10.0000 0.0 0.0 1
C_27045 RECT_OPEN 5.2550 22.0000 0.0 0.0 1
C_27046 RECT_OPEN 5.2750 22.0000 0.0 0.0 1
C_27047 RECT_OPEN 5.1130 22.0000 0.0 0.0 1
C_27048 RECT_CLOSED 3.4880 15.0000 0.0 0.0 1
C_27049 RECT_OPEN 4.0840 9.0000 0.0 0.0 1
C_27050 RECT_OPEN 4.0890 5.3930 0.0 0.0 1
C_27051 RECT_OPEN 4.1950 5.6450 0.0 0.0 1
C_27052 RECT_OPEN 4.2600 5.8990 0.0 0.0 1
C_27053 RECT_OPEN 5.0840 22.0000 0.0 0.0 1
C_27054 RECT_OPEN 5.3290 22.0000 0.0 0.0 1
C_27055 RECT_CLOSED 5.3880 24.0000 0.0 0.0 1
C_27056 RECT_OPEN 3.7450 6.1530 0.0 0.0 1
C_27057 RECT_OPEN 3.7210 9.0000 0.0 0.0 1
C_27058 RECT_OPEN 6.3810 22.0000 0.0 0.0 1
C_27059 RECT_OPEN 6.6490 24.0000 0.0 0.0 1
C_27060 RECT_OPEN 6.5730 22.0000 0.0 0.0 1
C_27061 RECT_OPEN 6.3010 22.0000 0.0 0.0 1
C_27062 RECT_OPEN 5.7100 22.0000 0.0 0.0 1
C_27063 RECT_OPEN 5.0180 22.0000 0.0 0.0 1
C_27064 RECT_OPEN 5.8710 22.0000 0.0 0.0 1
C_27065 RECT_OPEN 5.9370 22.0000 0.0 0.0 1
C_27067 RECT_OPEN 4.9390 22.0000 0.0 0.0 1
C_27068 RECT_OPEN 4.8700 22.0000 0.0 0.0 1
C_27075 RECT_CLOSED 2.0000 2.0000 0.0 0.0 1
C_27076 RECT_CLOSED 2.0000 2.0000 0.0 0.0 1
C_27077 RECT_CLOSED 2.0000 2.0000 0.0 0.0 1
C_27078 RECT_CLOSED 2.0000 2.0000 0.0 0.0 1
C_27079 RECT_CLOSED 2.0000 2.0000 0.0 0.0 1
C_27080 RECT_CLOSED 2.0000 2.0000 0.0 0.0 1
C_27081 RECT_CLOSED 2.0000 2.0000 0.0 0.0 1
C_27082 RECT_CLOSED 2.0000 2.0000 0.0 0.0 1
C_27084 RECT_CLOSED 2.0000 2.0000 0.0 0.0 1
C_27089 RECT_OPEN 3.3340 9.0000 0.0 0.0 1
C_27090 RECT_CLOSED 3.3170 14.6000 0.0 0.0 1
C_27091 RECT_OPEN 4.1990 9.0000 0.0 0.0 1
C_27092 RECT_OPEN 3.7770 9.0000 0.0 0.0 1
C_27093 RECT_OPEN 3.7780 9.0000 0.0 0.0 1
C_27094 RECT_OPEN 3.2620 9.0000 0.0 0.0 1
C_27095 RECT_OPEN 2.7960 9.0000 0.0 0.0 1
C_27096 RECT_OPEN 3.2760 9.0000 0.0 0.0 1
C_27097 RECT_OPEN 3.6150 9.0000 0.0 0.0 1
C_27098 RECT_OPEN 1.8150 4.9020 0.0 0.0 1
C_27099 RECT_OPEN 1.8190 5.0020 0.0 0.0 1
C_27100 RECT_OPEN 1.8060 5.0020 0.0 0.0 1
C_27101 RECT_OPEN 1.7100 5.0680 0.0 0.0 1
C_27102 RECT_OPEN 1.8370 5.0020 0.0 0.0 1
C_27103 RECT_OPEN 2.2470 5.0020 0.0 0.0 1
C_27104 RECT_OPEN 2.0010 5.0020 0.0 0.0 1
C_27105 RECT_OPEN 1.7910 5.0020 0.0 0.0 1
C_27106 RECT_OPEN 1.7780 5.0020 0.0 0.0 1
C_27109 RECT_OPEN 2.8380 5.0020 0.0 0.0 1
C_27110 RECT_OPEN 2.6930 3.5000 0.0 0.0 1
C_27111 RECT_CLOSED 2.6980 6.0000 0.0 0.0 1
C_27113 RECT_OPEN 3.3160 9.0000 0.0 0.0 1
C_27114 RECT_OPEN 3.7480 9.0000 0.0 0.0 1
C_27115 RECT_CLOSED 3.5680 12.2000 0.0 0.0 1
C_27116 RECT_OPEN 2.5960 4.7460 0.0 0.0 1
C_27117 RECT_OPEN 1.7660 4.8140 0.0 0.0 1
C_27118 RECT_OPEN 1.7710 4.3680 0.0 0.0 1
C_27119 RECT_OPEN 1.7040 4.8400 0.0 0.0 1
C_27120 RECT_OPEN 1.7980 4.4840 0.0 0.0 1
C_27121 RECT_OPEN 2.7570 6.0000 0.0 0.0 1
C_27122 RECT_OPEN 2.9580 6.0000 0.0 0.0 1
C_27123 RECT_CLOSED 2.7710 6.0000 0.0 0.0 1
C_27124 RECT_OPEN 3.2490 6.0000 0.0 0.0 1
C_27125 RECT_OPEN 2.8130 6.0000 0.0 0.0 1
C_27126 RECT_OPEN 3.1130 6.0000 0.0 0.0 1
C_27127 RECT_OPEN 3.0880 6.0000 0.0 0.0 1
C_27128 RECT_OPEN 2.9240 5.6640 0.0 0.0 1
C_27129 RECT_OPEN 2.3800 6.4610 0.0 0.0 1
C_27130 RECT_OPEN 2.3750 4.8270 0.0 0.0 1
C_27131 RECT_OPEN 2.5110 4.5000 0.0 0.0 1
C_27132 RECT_OPEN 2.3400 4.7240 0.0 0.0 1
C_27133 RECT_OPEN 2.6160 7.7680 0.0 0.0 1
C_27134 RECT_OPEN 2.3260 5.8090 0.0 0.0 1
C_27135 RECT_OPEN 2.4220 4.5000 0.0 0.0 1
C_27136 RECT_OPEN 2.4950 4.5000 0.0 0.0 1
C_27137 RECT_OPEN 2.5490 4.5000 0.0 0.0 1
C_27140 RECT_CLOSED 4.4030 4.0000 0.0 0.0 1
C_27141 RECT_CLOSED 4.0040 4.5000 0.0 0.0 1
C_27142 RECT_CLOSED 3.2590 4.5000 0.0 0.0 1
C_27143 RECT_CLOSED 4.2480 4.0000 0.0 0.0 1
C_27144 RECT_CLOSED 4.7080 4.0000 0.0 0.0 1
C_27145 RECT_OPEN 4.1480 3.5000 0.0 0.0 1
C_27146 RECT_CLOSED 4.2580 4.0000 0.0 0.0 1
C_27147 RECT_OPEN 3.5150 4.5000 0.0 0.0 1
C_27148 RECT_OPEN 2.6920 4.5000 0.0 0.0 1
C_27149 RECT_OPEN 3.5090 4.5000 0.0 0.0 1
C_27150 RECT_OPEN 4.2980 3.5000 0.0 0.0 1
C_27151 RECT_OPEN 3.9280 3.5000 0.0 0.0 1
C_27152 RECT_OPEN 3.7980 3.5000 0.0 0.0 1
C_27153 RECT_OPEN 3.8980 2.5000 0.0 0.0 1
C_27154 RECT_OPEN 3.9600 2.5000 0.0 0.0 1
C_27155 RECT_OPEN 4.1340 2.5000 0.0 0.0 1
C_27156 RECT_OPEN 3.6650 2.0000 0.0 0.0 1
C_27157 RECT_OPEN 2.5360 2.0000 0.0 0.0 1
C_27158 RECT_OPEN 2.6710 2.0000 0.0 0.0 1
C_27159 RECT_OPEN 1.7980 2.0000 0.0 0.0 1
C_27819 RECT_OPEN 2.9410 10.0000 0.0 0.0 1
C_27820 RECT_OPEN 2.7070 10.0000 0.0 0.0 1
C_27821 RECT_OPEN 2.6730 10.0000 0.0 0.0 1
C_27822 RECT_OPEN 2.6650 10.0000 0.0 0.0 1
C_27823 RECT_CLOSED 2.6510 10.0000 0.0 0.0 1
C_27824 RECT_OPEN 3.2780 10.0000 0.0 0.0 1
C_27825 RECT_OPEN 3.0440 10.0000 0.0 0.0 1
C_27826 RECT_OPEN 3.0090 10.0000 0.0 0.0 1
C_27827 RECT_OPEN 2.7750 10.0000 0.0 0.0 1
C_27835 RECT_OPEN 2.6390 8.0000 0.0 0.0 1
C_27836 RECT_OPEN 2.8050 8.0000 0.0 0.0 1
C_27837 RECT_OPEN 2.7710 8.0000 0.0 0.0 1
C_27838 RECT_OPEN 2.5570 8.0000 0.0 0.0 1
C_27839 RECT_OPEN 2.7350 8.0000 0.0 0.0 1
C_27840 RECT_OPEN 2.7010 8.0000 0.0 0.0 1
C_27849 RECT_OPEN 2.0900 8.0000 0.0 0.0 1
C_27850 RECT_OPEN 2.0830 8.0000 0.0 0.0 1
C_27851 RECT_OPEN 2.1110 8.0000 0.0 0.0 1
C_27852 RECT_CLOSED 2.1040 8.0000 0.0 0.0 1
C_27853 RECT_OPEN 2.3290 8.0000 0.0 0.0 1
C_27854 RECT_OPEN 2.3230 8.0000 0.0 0.0 1
C_27867 RECT_OPEN 2.3190 8.0000 0.0 0.0 1
C_27868 RECT_OPEN 2.3120 6.0000 0.0 0.0 1
C_27869 RECT_OPEN 2.2780 6.0000 0.0 0.0 1
C_27870 RECT_OPEN 2.3180 6.0000 0.0 0.0 1
C_27875 RECT_OPEN 2.3280 6.0000 0.0 0.0 1
C_27876 RECT_CLOSED 2.3580 6.0000 0.0 0.0 1
C_27877 RECT_CLOSED 2.4460 6.0000 0.0 0.0 1
C_27878 RECT_OPEN 2.6130 6.0000 0.0 0.0 1
C_27879 RECT_OPEN 2.6070 6.0000 0.0 0.0 1
C_27894 RECT_OPEN 2.6580 6.0000 0.0 0.0 1
C_27895 RECT_OPEN 2.7460 6.0000 0.0 0.0 1
C_27896 RECT_OPEN 2.8390 6.0000 0.0 0.0 1
C_27897 RECT_OPEN 2.8320 6.0000 0.0 0.0 1
C_27898 RECT_OPEN 3.9480 50.0000 0.0 0.0 1
C_27899 RECT_OPEN 2.7530 18.0000 0.0 0.0 1
C_27900 RECT_OPEN 2.5190 18.0000 0.0 0.0 1
C_27901 RECT_OPEN 3.8990 50.0000 0.0 0.0 1
C_27902 RECT_OPEN 3.8400 50.0000 0.0 0.0 1
C_27903 RECT_OPEN 3.3600 23.0000 0.0 0.0 1
C_27904 RECT_OPEN 3.3390 23.0000 0.0 0.0 1
C_27905 RECT_OPEN 3.5150 23.0000 0.0 0.0 1
C_27906 RECT_OPEN 3.4940 23.0000 0.0 0.0 1
C_27907 RECT_OPEN 2.6850 18.0000 0.0 0.0 1
C_27908 RECT_OPEN 2.6510 18.0000 0.0 0.0 1
C_27909 RECT_OPEN 2.4170 18.0000 0.0 0.0 1
C_27910 RECT_CLOSED 3.4720 23.0000 0.0 0.0 1
C_27911 RECT_CLOSED 3.2360 23.0000 0.0 0.0 1
C_27912 RECT_CLOSED 3.2110 23.0000 0.0 0.0 1
C_27913 RECT_OPEN 2.3850 18.0000 0.0 0.0 1
C_27914 RECT_OPEN 2.3490 18.0000 0.0 0.0 1
C_27915 RECT_OPEN 2.5140 18.0000 0.0 0.0 1
C_27916 RECT_OPEN 3.0800 18.0000 0.0 0.0 1
C_27917 RECT_OPEN 3.0750 18.0000 0.0 0.0 1
C_27918 RECT_OPEN 3.2470 18.0000 0.0 0.0 1
C_27919 RECT_OPEN 3.2120 18.0000 0.0 0.0 1
C_27920 RECT_OPEN 3.3900 18.0000 0.0 0.0 1
C_27921 RECT_OPEN 3.3800 18.0000 0.0 0.0 1
C_27922 RECT_OPEN 3.3740 18.0000 0.0 0.0 1
C_27923 RECT_OPEN 3.3690 10.0000 0.0 0.0 1
C_27924 RECT_CLOSED 3.3630 10.0000 0.0 0.0 1
C_27925 CIRCULAR 1.5000 1.5000 0.0 0.0 1
C_27926 CIRCULAR 1.5000 1.5000 0.0 0.0 1
C_27927 CIRCULAR 1.5000 1.5000 0.0 0.0 1
C_27928 RECT_OPEN 3.1460 10.0000 0.0 0.0 1
C_27929 RECT_OPEN 3.3120 10.0000 0.0 0.0 1
C_27930 CIRCULAR 1.5000 1.5000 0.0 0.0 1
C_27931 CIRCULAR 1.5000 1.5000 0.0 0.0 1
C_27932 CIRCULAR 1.5000 1.5000 0.0 0.0 1
C_27933 CIRCULAR 1.5000 1.5000 0.0 0.0 1
C_27934 CIRCULAR 1.5000 1.5000 0.0 0.0 1
C_27935 CIRCULAR 1.5000 1.5000 0.0 0.0 1
C_27936 CIRCULAR 1.5000 1.5000 0.0 0.0 1
C_27937 CIRCULAR 1.5000 1.5000 0.0 0.0 1
C_27938 CIRCULAR 1.5000 1.5000 0.0 0.0 1
C_27939 CIRCULAR 1.5000 1.5000 0.0 0.0 1
C_27940 CIRCULAR 1.5000 1.5000 0.0 0.0 1
C_27941 CIRCULAR 1.5000 1.5000 0.0 0.0 1
C_27942 CIRCULAR 1.5000 1.5000 0.0 0.0 1
C_27943 CIRCULAR 1.5000 1.5000 0.0 0.0 1
C_27944 CIRCULAR 1.5000 1.5000 0.0 0.0 1
C_27945 CIRCULAR 1.5000 1.5000 0.0 0.0 1
C_27946 CIRCULAR 1.5000 1.5000 0.0 0.0 1
C_27947 CIRCULAR 1.5000 1.5000 0.0 0.0 1
C_27948 CIRCULAR 1.5000 1.5000 0.0 0.0 1
C_27949 CIRCULAR 1.5000 1.5000 0.0 0.0 1
C_27950 CIRCULAR 1.5000 1.5000 0.0 0.0 1
C_27951 CIRCULAR 1.5000 1.5000 0.0 0.0 1
C_27952 CIRCULAR 1.5000 1.5000 0.0 0.0 1
C_27953 CIRCULAR 1.5000 1.5000 0.0 0.0 1
C_27954 CIRCULAR 1.5000 1.5000 0.0 0.0 1
C_27955 CIRCULAR 1.5000 1.5000 0.0 0.0 1
C_27956 CIRCULAR 1.5000 1.5000 0.0 0.0 1
C_27957 CIRCULAR 1.5000 1.5000 0.0 0.0 1
C_27958 CIRCULAR 1.5000 1.5000 0.0 0.0 1
C_27959 CIRCULAR 1.5000 1.5000 0.0 0.0 1
C_27960 RECT_OPEN 2.1540 18.5000 0.0 0.0 1
C_27961 RECT_OPEN 2.2120 18.5000 0.0 0.0 1
C_27962 RECT_OPEN 2.1960 18.5000 0.0 0.0 1
C_27963 RECT_OPEN 2.1810 18.5000 0.0 0.0 1
C_27964 RECT_OPEN 2.1670 18.5000 0.0 0.0 1
C_27965 CIRCULAR 1.5000 1.5000 0.0 0.0 1
C_27966 CIRCULAR 1.5000 1.5000 0.0 0.0 1
C_27967 CIRCULAR 1.5000 1.5000 0.0 0.0 1
C_27968 RECT_OPEN 2.1150 18.5000 0.0 0.0 1
C_27969 RECT_OPEN 2.1020 18.5000 0.0 0.0 1
C_27970 RECT_OPEN 2.1720 6.5000 0.0 0.0 1
C_27971 RECT_OPEN 2.1410 18.5000 0.0 0.0 1
C_27972 RECT_OPEN 2.1280 18.5000 0.0 0.0 1
C_27973 RECT_OPEN 2.0940 18.5000 0.0 0.0 1
C_27974 CIRCULAR 1.5000 1.5000 0.0 0.0 1
C_27975 CIRCULAR 1.5000 1.5000 0.0 0.0 1
C_27976 CIRCULAR 1.5000 1.5000 0.0 0.0 1
C_27977 CIRCULAR 1.5000 1.5000 0.0 0.0 1
C_27978 CIRCULAR 1.5000 1.5000 0.0 0.0 1
C_27979 CIRCULAR 1.5000 1.5000 0.0 0.0 1
C_27980 CIRCULAR 1.5000 1.5000 0.0 0.0 1
C_27981 CIRCULAR 1.5000 1.5000 0.0 0.0 1
C_27982 CIRCULAR 1.5000 1.5000 0.0 0.0 1
C_27983 CIRCULAR 1.5000 1.5000 0.0 0.0 1
C_27984 CIRCULAR 1.5000 1.5000 0.0 0.0 1
C_27985 CIRCULAR 1.5000 1.5000 0.0 0.0 1
C_27986 RECT_OPEN 2.6540 6.5000 0.0 0.0 1
C_27987 RECT_OPEN 2.2230 6.5000 0.0 0.0 1
C_27988 RECT_OPEN 1.8480 6.5000 0.0 0.0 1
C_27989 RECT_OPEN 1.9750 6.5000 0.0 0.0 1
C_27990 RECT_OPEN 2.1430 6.5000 0.0 0.0 1
C_27991 RECT_OPEN 2.9040 6.5000 0.0 0.0 1
C_27992 RECT_OPEN 2.7290 6.5000 0.0 0.0 1
C_27993 RECT_CLOSED 1.9090 12.0000 0.0 0.0 1
C_27994 RECT_CLOSED 2.2160 12.0000 0.0 0.0 1
C_27995 RECT_CLOSED 1.6950 12.0000 0.0 0.0 1
C_27996 RECT_OPEN 2.3100 9.0000 0.0 0.0 1
C_27997 RECT_OPEN 1.9240 9.0000 0.0 0.0 1
C_27998 RECT_OPEN 2.0010 6.0000 0.0 0.0 1
C_27999 RECT_OPEN 1.2000 5.0000 0.0 0.0 1
C_28000 RECT_OPEN 1.2000 5.0000 0.0 0.0 1
C_28001 RECT_OPEN 3.8800 4.7000 0.0 0.0 1
C_28002 RECT_OPEN 3.7360 4.7000 0.0 0.0 1
C_28003 RECT_OPEN 3.7190 4.5000 0.0 0.0 1
C_28004 RECT_CLOSED 3.7030 4.5000 0.0 0.0 1
C_28005 RECT_OPEN 3.1950 23.0000 0.0 0.0 1
C_28006 RECT_OPEN 3.3780 23.0000 0.0 0.0 1
C_28007 RECT_CLOSED 3.3440 18.5000 0.0 0.0 1
C_28008 RECT_OPEN 3.0350 18.5000 0.0 0.0 1
C_28009 RECT_OPEN 2.7120 18.5000 0.0 0.0 1
C_28010 RECT_OPEN 2.6890 18.5000 0.0 0.0 1
C_28011 RECT_OPEN 2.6660 18.5000 0.0 0.0 1
C_28012 RECT_OPEN 2.6440 18.5000 0.0 0.0 1
C_28013 RECT_OPEN 2.5160 18.5000 0.0 0.0 1
C_28014 RECT_OPEN 2.4910 18.5000 0.0 0.0 1
C_28015 RECT_OPEN 2.4690 18.5000 0.0 0.0 1
C_28016 RECT_OPEN 2.4950 18.5000 0.0 0.0 1
C_28017 RECT_OPEN 2.4020 18.5000 0.0 0.0 1
C_28018 RECT_OPEN 2.4000 18.5000 0.0 0.0 1
C_28019 RECT_OPEN 2.3770 18.5000 0.0 0.0 1
C_28020 RECT_OPEN 2.3500 18.5000 0.0 0.0 1
C_28021 RECT_OPEN 2.3300 18.5000 0.0 0.0 1
C_28022 RECT_OPEN 2.3050 18.5000 0.0 0.0 1
C_28023 RECT_OPEN 2.2800 18.5000 0.0 0.0 1
C_28024 RECT_OPEN 2.2730 18.5000 0.0 0.0 1
C_28025 RECT_OPEN 2.3620 18.5000 0.0 0.0 1
C_28026 RECT_OPEN 2.2360 17.0000 0.0 0.0 1
C_28027 RECT_OPEN 2.3540 18.5000 0.0 0.0 1
C_28028 RECT_OPEN 2.3380 18.5000 0.0 0.0 1
C_28029 RECT_OPEN 2.3260 18.5000 0.0 0.0 1
C_28030 RECT_OPEN 3.0300 17.0000 0.0 0.0 1
C_28031 RECT_CLOSED 3.0160 15.0000 0.0 0.0 1
C_28032 RECT_OPEN 1.5000 3.0000 0.0 0.0 1
C_28033 RECT_CLOSED 3.0000 15.0000 0.0 0.0 1
C_28034 RECT_OPEN 2.5980 10.0000 0.0 0.0 1
C_28035 RECT_OPEN 2.2280 8.0000 0.0 0.0 1
C_28036 RECT_OPEN 1.5000 3.0000 0.0 0.0 1
C_28037 RECT_OPEN 1.5000 3.0000 0.0 0.0 1
C_28038 RECT_OPEN 1.5000 3.0000 0.0 0.0 1
C_28039 RECT_OPEN 2.1170 8.0000 0.0 0.0 1
C_28040 RECT_OPEN 2.0230 8.0000 0.0 0.0 1
C_28041 RECT_OPEN 2.3530 8.0000 0.0 0.0 1
C_28042 RECT_OPEN 2.2880 8.0000 0.0 0.0 1
C_28043 RECT_OPEN 1.8820 8.0000 0.0 0.0 1
C_28044 RECT_OPEN 1.2000 3.5000 0.0 0.0 1
C_28045 RECT_OPEN 1.8470 8.0000 0.0 0.0 1
C_28046 RECT_OPEN 1.8530 8.0000 0.0 0.0 1
C_28047 RECT_OPEN 1.9500 8.0000 0.0 0.0 1
C_28048 RECT_OPEN 1.9440 8.0000 0.0 0.0 1
C_28049 RECT_OPEN 1.8910 8.0000 0.0 0.0 1
C_28052 RECT_OPEN 1.3630 4.3000 0.0 0.0 1
C_28053 RECT_OPEN 1.2790 4.7020 0.0 0.0 1
C_28054 RECT_OPEN 1.3070 4.3190 0.0 0.0 1
C_28055 RECT_OPEN 1.4760 4.3410 0.0 0.0 1
C_28056 RECT_OPEN 1.3840 4.5680 0.0 0.0 1
C_28057 RECT_OPEN 2.0450 4.2510 0.0 0.0 1
C_28058 RECT_OPEN 1.9740 4.0000 0.0 0.0 1
C_28059 RECT_OPEN 1.5840 4.6050 0.0 0.0 1
C_28060 RECT_OPEN 1.4280 4.8240 0.0 0.0 1
C_28061 RECT_OPEN 2.0290 4.2630 0.0 0.0 1
C_28062 RECT_OPEN 2.3500 15.0000 0.0 0.0 1
C_28063 RECT_OPEN 2.0900 15.0000 0.0 0.0 1
C_28064 RECT_OPEN 2.1180 15.0000 0.0 0.0 1
C_28065 RECT_OPEN 3.2110 4.5000 0.0 0.0 1
C_28066 RECT_OPEN 2.9880 4.5000 0.0 0.0 1
C_28068 RECT_CLOSED 2.9710 4.5000 0.0 0.0 1
C_28071 RECT_OPEN 1.5800 4.5000 0.0 0.0 1
C_28072 RECT_OPEN 1.0270 4.5000 0.0 0.0 1
C_28073 RECT_OPEN 1.0380 7.6090 0.0 0.0 1
C_28074 RECT_OPEN 1.2200 4.0000 0.0 0.0 1
C_28075 RECT_OPEN 1.4020 4.3000 0.0 0.0 1
C_28076 RECT_OPEN 1.6220 7.6000 0.0 0.0 1
C_28079 RECT_CLOSED 1.4710 7.6000 0.0 0.0 1
C_28080 RECT_OPEN 1.9380 15.0000 0.0 0.0 1
C_28081 RECT_OPEN 1.8780 15.0000 0.0 0.0 1
C_28082 RECT_OPEN 2.4400 15.0000 0.0 0.0 1
C_28083 RECT_CLOSED 2.4670 15.0000 0.0 0.0 1
C_28084 RECT_OPEN 2.0680 15.0000 0.0 0.0 1
C_28085 RECT_OPEN 2.0480 15.0000 0.0 0.0 1
C_28087 RECT_OPEN 3.6130 4.0000 0.0 0.0 1
C_28089 RECT_OPEN 3.7850 4.0000 0.0 0.0 1
C_28090 RECT_OPEN 2.4960 15.0000 0.0 0.0 1
C_28091 RECT_OPEN 2.4960 15.0000 0.0 0.0 1
C_28092 RECT_OPEN 2.1760 15.0000 0.0 0.0 1
C_28093 RECT_CLOSED 2.4770 15.0000 0.0 0.0 1
C_28094 RECT_CLOSED 2.3640 15.0000 0.0 0.0 1
C_28095 RECT_OPEN 2.3550 15.0000 0.0 0.0 1
C_28096 RECT_OPEN 2.3350 15.0000 0.0 0.0 1
C_28099 RECT_OPEN 3.5660 4.0000 0.0 0.0 1
C_28100 RECT_OPEN 3.5470 4.0000 0.0 0.0 1
C_28101 RECT_OPEN 3.5260 4.0000 0.0 0.0 1
C_28102 RECT_OPEN 1.9940 15.0000 0.0 0.0 1
C_28103 RECT_OPEN 2.4960 15.0000 0.0 0.0 1
C_28104 RECT_OPEN 2.4840 15.0000 0.0 0.0 1
C_28105 RECT_CLOSED 2.1610 15.0000 0.0 0.0 1
C_28106 RECT_OPEN 2.4030 15.0000 0.0 0.0 1
C_28108 RECT_OPEN 3.6970 4.0000 0.0 0.0 1
C_28111 RECT_OPEN 2.8820 4.0000 0.0 0.0 1
C_28112 RECT_OPEN 2.4480 15.0000 0.0 0.0 1
C_28113 RECT_OPEN 2.5410 15.0000 0.0 0.0 1
C_28114 RECT_OPEN 2.5410 15.0000 0.0 0.0 1
C_28115 RECT_OPEN 1.9820 15.0000 0.0 0.0 1
C_28120 RECT_OPEN 2.7870 4.0000 0.0 0.0 1
C_28122 RECT_OPEN 3.5780 4.0000 0.0 0.0 1
C_28125 RECT_CLOSED 2.2390 7.9000 0.0 0.0 1
C_28126 RECT_CLOSED 2.2380 6.2000 0.0 0.0 1
C_28127 RECT_CLOSED 2.0830 6.5000 0.0 0.0 1
C_28128 RECT_CLOSED 2.0380 7.5000 0.0 0.0 1
C_28129 RECT_CLOSED 2.1440 7.5000 0.0 0.0 1
C_28130 RECT_OPEN 2.2150 7.9000 0.0 0.0 1
C_28131 RECT_OPEN 2.5220 5.5200 0.0 0.0 1
C_28132 RECT_OPEN 2.2530 7.2550 0.0 0.0 1
C_28133 RECT_CLOSED 1.8900 12.6000 0.0 0.0 1
C_28134 RECT_OPEN 2.2530 10.0000 0.0 0.0 1
C_28135 RECT_CLOSED 2.2470 10.0000 0.0 0.0 1
C_28136 RECT_CLOSED 1.5990 4.8000 0.0 0.0 1
C_28137 RECT_CLOSED 1.6300 4.8000 0.0 0.0 1
C_28138 RECT_OPEN 1.4550 10.3870 0.0 0.0 1
C_28139 RECT_OPEN 1.6480 5.6500 0.0 0.0 1
C_28140 RECT_OPEN 2.2180 5.6500 0.0 0.0 1
C_28141 RECT_OPEN 1.5890 10.0400 0.0 0.0 1
C_28142 RECT_OPEN 1.8100 5.6500 0.0 0.0 1
C_28143 RECT_CLOSED 1.2690 6.5000 0.0 0.0 1
C_28144 RECT_OPEN 1.1490 6.5000 0.0 0.0 1
C_28145 RECT_OPEN 1.8400 5.6500 0.0 0.0 1
C_28146 RECT_OPEN 1.0990 9.4600 0.0 0.0 1
C_28147 RECT_OPEN 1.6690 5.6500 0.0 0.0 1
C_28148 RECT_OPEN 1.5290 9.8700 0.0 0.0 1
C_28149 RECT_OPEN 1.6290 5.6500 0.0 0.0 1
C_28150 RECT_OPEN 1.2590 9.7200 0.0 0.0 1
C_28151 RECT_OPEN 1.5990 9.7800 0.0 0.0 1
C_28152 RECT_CLOSED 1.5540 6.0000 0.0 0.0 1
C_28153 RECT_CLOSED 1.3750 6.0000 0.0 0.0 1
C_28154 RECT_CLOSED 1.3050 4.5000 0.0 0.0 1
C_28155 RECT_CLOSED 1.5060 4.5000 0.0 0.0 1
C_28156 RECT_OPEN 1.5680 5.3000 0.0 0.0 1
C_28157 RECT_OPEN 1.6280 7.4330 0.0 0.0 1
C_28158 RECT_OPEN 1.6610 7.5280 0.0 0.0 1
C_28159 RECT_OPEN 1.1820 7.5000 0.0 0.0 1
C_28160 RECT_OPEN 1.1810 7.6920 0.0 0.0 1
C_28161 RECT_OPEN 1.1360 7.3820 0.0 0.0 1
C_28162 RECT_OPEN 2.2650 5.6500 0.0 0.0 1
C_28163 RECT_OPEN 2.0640 5.6500 0.0 0.0 1
C_28164 RECT_OPEN 2.1340 5.6500 0.0 0.0 1
C_28165 RECT_OPEN 1.5890 10.0000 0.0 0.0 1
C_28166 RECT_OPEN 2.5140 5.6500 0.0 0.0 1
C_28167 RECT_OPEN 1.5190 10.0800 0.0 0.0 1
C_28168 RECT_OPEN 1.5170 5.6500 0.0 0.0 1
C_28169 RECT_OPEN 1.6860 5.6500 0.0 0.0 1
C_28170 RECT_OPEN 1.6090 10.1300 0.0 0.0 1
C_28171 RECT_OPEN 2.1560 5.6500 0.0 0.0 1
C_28172 RECT_OPEN 1.5390 9.8000 0.0 0.0 1
C_28173 RECT_OPEN 1.4990 9.9000 0.0 0.0 1
C_28174 RECT_OPEN 1.5990 9.8100 0.0 0.0 1
C_28175 RECT_OPEN 2.1170 5.6500 0.0 0.0 1
C_28176 RECT_OPEN 1.5490 10.0200 0.0 0.0 1
C_28177 RECT_OPEN 1.6690 10.2600 0.0 0.0 1
C_28178 RECT_OPEN 1.2030 7.9380 0.0 0.0 1
C_28179 RECT_OPEN 1.3840 7.7360 0.0 0.0 1
C_28180 RECT_OPEN 1.5180 7.5000 0.0 0.0 1
C_28181 RECT_OPEN 1.6790 7.5000 0.0 0.0 1
C_28182 RECT_OPEN 2.4120 5.6500 0.0 0.0 1
C_28183 RECT_OPEN 2.1110 5.6500 0.0 0.0 1
C_28184 RECT_OPEN 1.8860 9.5000 0.0 0.0 1
C_28185 RECT_OPEN 2.2210 5.6500 0.0 0.0 1
C_28186 RECT_OPEN 1.7070 9.5000 0.0 0.0 1
C_28187 RECT_OPEN 2.0710 5.6500 0.0 0.0 1
C_28188 RECT_OPEN 1.9660 10.1200 0.0 0.0 1
C_28189 RECT_OPEN 1.9750 15.0000 0.0 0.0 1
C_28190 RECT_OPEN 2.2530 5.6500 0.0 0.0 1
C_28191 RECT_OPEN 2.6480 5.6500 0.0 0.0 1
C_28192 RECT_OPEN 1.6290 10.1600 0.0 0.0 1
C_28193 RECT_CLOSED 2.3680 5.6500 0.0 0.0 1
C_28194 RECT_CLOSED 2.1790 14.0000 0.0 0.0 1
C_28195 RECT_CLOSED 2.2120 5.6500 0.0 0.0 1
C_28196 RECT_OPEN 2.2190 14.0000 0.0 0.0 1
C_28197 RECT_OPEN 1.9090 9.5000 0.0 0.0 1
C_28198 RECT_OPEN 1.5290 10.0200 0.0 0.0 1
C_28199 RECT_OPEN 1.4950 6.0810 0.0 0.0 1
C_28200 RECT_OPEN 1.3130 7.5250 0.0 0.0 1
C_28201 RECT_OPEN 1.4010 7.5110 0.0 0.0 1
C_28202 RECT_OPEN 1.8870 7.4610 0.0 0.0 1
C_28203 RECT_OPEN 1.5710 7.7610 0.0 0.0 1
C_28204 RECT_OPEN 2.2820 13.0000 0.0 0.0 1
C_28205 RECT_OPEN 2.2760 13.0000 0.0 0.0 1
C_28206 RECT_OPEN 2.1750 13.0000 0.0 0.0 1
C_28207 RECT_CLOSED 2.2750 13.0000 0.0 0.0 1
C_28208 RECT_OPEN 2.4730 13.0000 0.0 0.0 1
C_28209 RECT_OPEN 2.1540 13.0000 0.0 0.0 1
C_28210 RECT_OPEN 1.9710 13.0000 0.0 0.0 1
C_28211 RECT_OPEN 2.1880 9.8570 0.0 0.0 1
C_28212 RECT_CLOSED 1.9320 4.0000 0.0 0.0 1
C_28213 RECT_CLOSED 1.9320 4.0000 0.0 0.0 1
C_28214 RECT_OPEN 1.9980 4.0000 0.0 0.0 1
C_28215 RECT_OPEN 1.9980 4.0000 0.0 0.0 1
C_28216 RECT_OPEN 2.2950 10.1320 0.0 0.0 1
C_28217 RECT_OPEN 2.1820 10.1270 0.0 0.0 1
C_28218 RECT_OPEN 2.3090 10.2560 0.0 0.0 1
C_28219 RECT_OPEN 2.4810 10.6870 0.0 0.0 1
C_28220 RECT_OPEN 2.3930 11.3960 0.0 0.0 1
C_28221 RECT_OPEN 2.4110 10.8740 0.0 0.0 1
C_28222 RECT_CLOSED 2.8740 10.0000 0.0 0.0 1
C_28223 RECT_CLOSED 2.8740 10.0000 0.0 0.0 1
C_28224 RECT_CLOSED 2.8740 10.0000 0.0 0.0 1
C_28225 RECT_CLOSED 2.8740 10.0000 0.0 0.0 1
C_28226 RECT_OPEN 2.8750 10.0000 0.0 0.0 1
C_28227 RECT_OPEN 2.8750 10.0000 0.0 0.0 1
C_28228 RECT_OPEN 2.8780 10.0000 0.0 0.0 1
C_28229 RECT_OPEN 2.8780 10.0000 0.0 0.0 1
C_28230 RECT_CLOSED 2.6790 13.0000 0.0 0.0 1
C_28231 RECT_CLOSED 2.6790 13.0000 0.0 0.0 1
C_28232 RECT_CLOSED 1.8030 4.0000 0.0 0.0 1
C_28233 RECT_CLOSED 1.8030 4.0000 0.0 0.0 1
C_28234 RECT_CLOSED 2.8540 10.0000 0.0 0.0 1
C_28235 RECT_CLOSED 2.8540 10.0000 0.0 0.0 1
C_28236 RECT_OPEN 2.6690 10.0000 0.0 0.0 1
C_28237 RECT_OPEN 2.6690 10.0000 0.0 0.0 1
C_28238 RECT_OPEN 3.7780 15.0000 0.0 0.0 1
C_28239 RECT_OPEN 3.7780 15.0000 0.0 0.0 1
C_28240 RECT_OPEN 2.6720 10.0000 0.0 0.0 1
C_28241 RECT_OPEN 2.6720 10.0000 0.0 0.0 1
C_28242 RECT_CLOSED 2.8730 10.0000 0.0 0.0 1
C_28243 RECT_CLOSED 2.8730 10.0000 0.0 0.0 1
C_28244 RECT_CLOSED 2.8740 10.0000 0.0 0.0 1
C_28245 RECT_CLOSED 2.8740 10.0000 0.0 0.0 1
C_28246 RECT_OPEN 2.3080 10.2110 0.0 0.0 1
C_28247 RECT_OPEN 2.2450 10.3890 0.0 0.0 1
C_28248 RECT_OPEN 2.1610 13.9650 0.0 0.0 1
C_28249 RECT_OPEN 2.1390 13.6030 0.0 0.0 1
C_28250 RECT_OPEN 2.1360 9.9570 0.0 0.0 1
C_28251 RECT_OPEN 2.3410 10.0200 0.0 0.0 1
C_28252 RECT_OPEN 2.3410 9.4310 0.0 0.0 1
C_28253 RECT_OPEN 2.5020 13.0000 0.0 0.0 1
C_28254 RECT_OPEN 2.3030 13.0000 0.0 0.0 1
C_28255 RECT_CLOSED 2.1850 13.0000 0.0 0.0 1
C_28256 RECT_CLOSED 2.2550 13.0000 0.0 0.0 1
C_28257 RECT_OPEN 2.3080 13.0000 0.0 0.0 1
C_28258 RECT_OPEN 2.5100 13.0000 0.0 0.0 1
C_28259 RECT_CLOSED 2.7110 13.0000 0.0 0.0 1
C_28260 RECT_OPEN 3.0950 13.0000 0.0 0.0 1
C_28261 RECT_OPEN 2.6930 13.0000 0.0 0.0 1
C_28262 RECT_OPEN 2.7990 13.0000 0.0 0.0 1
C_28263 RECT_OPEN 2.6510 13.0000 0.0 0.0 1
C_28264 RECT_OPEN 2.6800 13.0000 0.0 0.0 1
C_28265 RECT_OPEN 2.2830 13.0000 0.0 0.0 1
C_28266 RECT_OPEN 2.0860 13.0000 0.0 0.0 1
C_28267 RECT_OPEN 2.6880 13.0000 0.0 0.0 1
C_28268 RECT_OPEN 2.0870 13.0000 0.0 0.0 1
C_28273 RECT_OPEN 2.1290 10.2680 0.0 0.0 1
C_28274 RECT_OPEN 1.9160 7.3840 0.0 0.0 1
C_28275 RECT_CLOSED 2.4950 4.5000 0.0 0.0 1
C_28276 RECT_CLOSED 2.3250 4.5000 0.0 0.0 1
C_28277 RECT_CLOSED 2.3240 10.5000 0.0 0.0 1
C_28278 RECT_OPEN 1.5270 12.0000 0.0 0.0 1
C_28279 RECT_OPEN 1.5210 12.0000 0.0 0.0 1
C_28280 RECT_CLOSED 2.4940 10.5000 0.0 0.0 1
C_28281 RECT_OPEN 2.1020 10.3780 0.0 0.0 1
C_28282 RECT_OPEN 2.5190 10.2840 0.0 0.0 1
C_28283 RECT_CLOSED 2.5970 13.0000 0.0 0.0 1
C_28284 RECT_OPEN 2.3410 10.1420 0.0 0.0 1
C_28285 RECT_OPEN 2.4720 13.0000 0.0 0.0 1
C_28286 RECT_OPEN 1.5170 7.0000 0.0 0.0 1
C_28287 RECT_OPEN 1.2310 7.0000 0.0 0.0 1
C_28288 RECT_CLOSED 1.2150 7.0000 0.0 0.0 1
C_28289 RECT_OPEN 1.3690 7.0000 0.0 0.0 1
C_28290 RECT_OPEN 1.6910 7.0000 0.0 0.0 1
C_28291 RECT_OPEN 1.5970 7.0000 0.0 0.0 1
C_28292 RECT_OPEN 1.7060 5.0000 0.0 0.0 1
C_28293 RECT_OPEN 1.4730 5.0000 0.0 0.0 1
C_28294 RECT_OPEN 1.3890 5.0000 0.0 0.0 1
C_28297 RECT_OPEN 1.5780 5.0000 0.0 0.0 1
C_28298 RECT_OPEN 1.5130 12.0000 0.0 0.0 1
C_28299 RECT_OPEN 1.5060 12.0000 0.0 0.0 1
C_28300 RECT_OPEN 1.4980 12.0000 0.0 0.0 1
C_28301 RECT_OPEN 1.4900 12.0000 0.0 0.0 1
C_28302 RECT_OPEN 1.5750 7.0000 0.0 0.0 1
C_28303 RECT_OPEN 1.5070 7.0000 0.0 0.0 1
C_28304 RECT_OPEN 1.1770 7.0000 0.0 0.0 1
C_28305 RECT_OPEN 1.5000 3.0000 0.0 0.0 1
C_28306 RECT_OPEN 1.5000 3.0000 0.0 0.0 1
C_28307 RECT_CLOSED 1.4620 5.0000 0.0 0.0 1
C_28308 RECT_OPEN 1.5040 3.0000 0.0 0.0 1
C_28309 RECT_OPEN 2.0700 3.0820 0.0 0.0 1
C_28310 RECT_OPEN 2.0780 3.0960 0.0 0.0 1
C_28311 RECT_OPEN 2.3730 3.0960 0.0 0.0 1
C_28312 RECT_OPEN 2.1530 3.0960 0.0 0.0 1
C_28313 RECT_OPEN 1.8600 3.0960 0.0 0.0 1
C_28314 RECT_OPEN 1.9830 2.9030 0.0 0.0 1
C_28315 RECT_OPEN 1.8110 3.3010 0.0 0.0 1
C_28316 RECT_OPEN 1.6010 2.4090 0.0 0.0 1
C_28317 RECT_OPEN 1.6940 2.2950 0.0 0.0 1
C_28318 RECT_OPEN 1.9380 3.0960 0.0 0.0 1
C_28319 RECT_CLOSED 1.6980 3.0000 0.0 0.0 1
C_28320 RECT_CLOSED 1.4880 3.0000 0.0 0.0 1
C_28321 RECT_CLOSED 1.2780 3.0000 0.0 0.0 1
C_28322 RECT_CLOSED 1.0580 3.0000 0.0 0.0 1
C_28323 RECT_OPEN 1.7260 2.9650 0.0 0.0 1
C_28324 RECT_CLOSED 1.3990 5.0000 0.0 0.0 1
C_28325 RECT_OPEN 1.4190 3.2900 0.0 0.0 1
C_28326 RECT_OPEN 1.7810 4.1510 0.0 0.0 1
C_28327 RECT_CLOSED 1.8000 1.8000 0.0 0.0 1
C_28328 RECT_OPEN 1.2000 1.8000 0.0 0.0 1
C_28329 RECT_OPEN 1.2000 1.8000 0.0 0.0 1
C_28330 RECT_OPEN 1.2000 1.8000 0.0 0.0 1
C_28331 RECT_OPEN 1.2000 1.8000 0.0 0.0 1
C_28332 RECT_CLOSED 1.2980 3.0000 0.0 0.0 1
C_28333 RECT_CLOSED 1.2280 3.0000 0.0 0.0 1
C_28334 RECT_CLOSED 1.1250 4.5000 0.0 0.0 1
C_28335 RECT_CLOSED 0.9390 4.5000 0.0 0.0 1
C_28336 RECT_OPEN 1.8680 4.8970 0.0 0.0 1
C_28337 RECT_OPEN 2.2530 5.0170 0.0 0.0 1
C_28338 RECT_OPEN 1.6550 5.0050 0.0 0.0 1
C_28339 RECT_OPEN 1.8870 5.1840 0.0 0.0 1
C_28340 RECT_OPEN 1.5130 6.0000 0.0 0.0 1
C_28341 RECT_CLOSED 1.6110 5.0000 0.0 0.0 1
C_28342 RECT_OPEN 1.5660 6.0000 0.0 0.0 1
C_28343 RECT_OPEN 1.8980 6.0000 0.0 0.0 1
C_28344 RECT_CLOSED 1.7180 6.0000 0.0 0.0 1
C_28345 RECT_OPEN 1.7180 6.0000 0.0 0.0 1
C_28346 RECT_OPEN 2.0750 4.5000 0.0 0.0 1
C_28347 RECT_OPEN 2.0750 4.5000 0.0 0.0 1
C_28348 RECT_OPEN 2.1270 4.5000 0.0 0.0 1
C_28349 RECT_OPEN 2.1270 4.5000 0.0 0.0 1
C_28350 RECT_OPEN 2.0140 4.9960 0.0 0.0 1
C_28351 RECT_OPEN 2.0790 5.0000 0.0 0.0 1
C_28352 RECT_OPEN 2.0620 5.0280 0.0 0.0 1
C_28353 RECT_CLOSED 2.0620 6.0000 0.0 0.0 1
C_28354 RECT_OPEN 2.7350 3.5000 0.0 0.0 1
C_28355 RECT_OPEN 2.0620 5.0280 0.0 0.0 1
C_28356 RECT_OPEN 1.9070 4.9770 0.0 0.0 1
C_28357 RECT_CLOSED 1.9280 4.7000 0.0 0.0 1
C_28358 RECT_OPEN 1.9070 4.9770 0.0 0.0 1
C_28359 RECT_OPEN 1.7050 7.1720 0.0 0.0 1
C_28360 RECT_OPEN 2.0690 4.0000 0.0 0.0 1
C_28361 RECT_CLOSED 2.6190 3.5000 0.0 0.0 1
C_28362 RECT_OPEN 1.8390 3.0000 0.0 0.0 1
C_28363 RECT_OPEN 2.2020 2.9180 0.0 0.0 1
C_28364 RECT_OPEN 1.8550 3.0900 0.0 0.0 1
C_28365 RECT_OPEN 2.0000 3.0820 0.0 0.0 1
C_28366 RECT_OPEN 1.9140 3.0370 0.0 0.0 1
C_28367 RECT_OPEN 2.3200 2.5000 0.0 0.0 1
C_28368 RECT_OPEN 1.8170 3.1600 0.0 0.0 1
C_28369 RECT_OPEN 2.0370 2.4990 0.0 0.0 1
C_28370 RECT_OPEN 2.2530 2.6240 0.0 0.0 1
C_28371 RECT_OPEN 2.1770 4.5000 0.0 0.0 1
C_28372 RECT_OPEN 2.1770 4.5000 0.0 0.0 1
C_28373 RECT_OPEN 2.6210 4.5000 0.0 0.0 1
C_28374 RECT_OPEN 2.6210 4.5000 0.0 0.0 1
C_28375 RECT_CLOSED 2.0670 4.0000 0.0 0.0 1
C_28376 RECT_OPEN 1.6130 8.0000 0.0 0.0 1
C_28377 RECT_OPEN 1.6310 8.0000 0.0 0.0 1
C_28378 RECT_CLOSED 1.7100 8.0000 0.0 0.0 1
C_28379 RECT_OPEN 1.7670 8.0000 0.0 0.0 1
C_28380 RECT_OPEN 1.7720 4.0000 0.0 0.0 1
C_28381 RECT_CLOSED 1.9730 14.0000 0.0 0.0 1
C_28382 RECT_CLOSED 1.9730 4.0000 0.0 0.0 1
C_28383 RECT_CLOSED 1.8760 4.0000 0.0 0.0 1
C_28384 RECT_CLOSED 1.8760 4.0000 0.0 0.0 1
C_28385 RECT_CLOSED 1.9210 4.0000 0.0 0.0 1
C_28386 RECT_CLOSED 1.9210 4.0000 0.0 0.0 1
C_28387 RECT_CLOSED 1.9220 4.0000 0.0 0.0 1
C_28388 RECT_CLOSED 1.9220 4.0000 0.0 0.0 1
C_28389 RECT_CLOSED 1.9230 4.0000 0.0 0.0 1
C_28390 RECT_CLOSED 1.9230 4.0000 0.0 0.0 1
C_28391 RECT_CLOSED 1.9250 4.0000 0.0 0.0 1
C_28392 RECT_CLOSED 1.9250 4.0000 0.0 0.0 1
C_28393 RECT_CLOSED 1.9280 4.0000 0.0 0.0 1
C_28394 RECT_CLOSED 1.9280 4.0000 0.0 0.0 1
C_28395 RECT_OPEN 2.3430 13.0000 0.0 0.0 1
C_28396 RECT_OPEN 2.3430 13.0000 0.0 0.0 1
C_28397 RECT_OPEN 2.3550 13.0000 0.0 0.0 1
C_28398 RECT_OPEN 2.3550 13.0000 0.0 0.0 1
C_28399 RECT_OPEN 2.0280 13.0000 0.0 0.0 1
C_28400 RECT_OPEN 2.2680 15.0000 0.0 0.0 1
C_28401 RECT_OPEN 2.2680 13.0000 0.0 0.0 1
C_28402 RECT_OPEN 2.2680 15.0000 0.0 0.0 1
C_28403 RECT_OPEN 2.1520 13.0000 0.0 0.0 1
C_28404 RECT_OPEN 2.3840 13.0000 0.0 0.0 1
C_28405 RECT_OPEN 2.2790 13.0000 0.0 0.0 1
C_28406 RECT_OPEN 2.2790 13.0000 0.0 0.0 1
C_28407 RECT_OPEN 2.2910 13.0000 0.0 0.0 1
C_28408 RECT_OPEN 2.2910 13.0000 0.0 0.0 1
C_28409 RECT_OPEN 2.2330 13.0000 0.0 0.0 1
C_28410 RECT_OPEN 2.2330 13.0000 0.0 0.0 1
C_28411 RECT_OPEN 2.0370 2.5000 0.0 0.0 1
C_28412 RECT_OPEN 2.2280 13.0000 0.0 0.0 1
C_28413 RECT_OPEN 2.2280 13.0000 0.0 0.0 1
C_28414 RECT_OPEN 2.2490 13.0000 0.0 0.0 1
C_28415 RECT_OPEN 2.2490 13.0000 0.0 0.0 1
C_28416 RECT_OPEN 2.2460 13.0000 0.0 0.0 1
C_28417 RECT_OPEN 2.2460 13.0000 0.0 0.0 1
C_28418 RECT_OPEN 1.9430 2.6700 0.0 0.0 1
C_28419 RECT_OPEN 1.7690 4.8000 0.0 0.0 1
C_28420 RECT_OPEN 3.2300 1.4650 0.0 0.0 1
C_28421 RECT_OPEN 3.2300 1.4650 0.0 0.0 1
C_28422 RECT_OPEN 3.2120 0.5550 0.0 0.0 1
C_28423 RECT_OPEN 3.2120 0.5550 0.0 0.0 1
C_28424 RECT_OPEN 2.2690 4.5000 0.0 0.0 1
C_28425 RECT_OPEN 2.2690 4.5000 0.0 0.0 1
C_28426 RECT_OPEN 2.0590 4.5000 0.0 0.0 1
C_28427 RECT_OPEN 2.0590 4.5000 0.0 0.0 1
C_28428 RECT_OPEN 3.0440 1.4650 0.0 0.0 1
C_28429 RECT_OPEN 3.0440 1.4650 0.0 0.0 1
C_28430 RECT_OPEN 3.0370 1.4650 0.0 0.0 1
C_28431 RECT_OPEN 3.0370 1.4650 0.0 0.0 1
C_28432 RECT_OPEN 3.2060 1.3500 0.0 0.0 1
C_28433 RECT_OPEN 3.2060 1.3500 0.0 0.0 1
C_28434 RECT_OPEN 2.1730 13.0000 0.0 0.0 1
C_28435 RECT_OPEN 2.1730 13.0000 0.0 0.0 1
C_28436 RECT_CLOSED 2.7790 13.0000 0.0 0.0 1
C_28437 RECT_CLOSED 2.7790 13.0000 0.0 0.0 1
C_28438 RECT_OPEN 3.0540 1.4650 0.0 0.0 1
C_28439 RECT_OPEN 3.0540 1.4650 0.0 0.0 1
C_28440 RECT_OPEN 2.7800 13.0000 0.0 0.0 1
C_28441 RECT_OPEN 2.7800 13.0000 0.0 0.0 1
C_28442 RECT_OPEN 2.3940 13.0000 0.0 0.0 1
C_28443 RECT_OPEN 2.3940 13.0000 0.0 0.0 1
C_28444 RECT_OPEN 3.1600 13.0000 0.0 0.0 1
C_28445 RECT_OPEN 3.1600 13.0000 0.0 0.0 1
C_28446 RECT_OPEN 3.3530 13.0000 0.0 0.0 1
C_28447 RECT_OPEN 3.3530 13.0000 0.0 0.0 1
C_28448 RECT_OPEN 2.3010 13.0000 0.0 0.0 1
C_28449 RECT_OPEN 2.3010 13.0000 0.0 0.0 1
C_28450 RECT_OPEN 2.3010 13.0000 0.0 0.0 1
C_28451 RECT_OPEN 2.3010 13.0000 0.0 0.0 1
C_28452 RECT_OPEN 2.0530 4.5000 0.0 0.0 1
C_28453 RECT_OPEN 2.0530 4.5000 0.0 0.0 1
C_28454 RECT_OPEN 3.2210 1.4650 0.0 0.0 1
C_28455 RECT_OPEN 3.2210 1.4650 0.0 0.0 1
C_28456 RECT_OPEN 3.1930 1.6240 0.0 0.0 1
C_28457 RECT_OPEN 3.1930 1.6240 0.0 0.0 1
C_28458 RECT_OPEN 3.7770 1.6240 0.0 0.0 1
C_28459 RECT_OPEN 3.7770 1.6240 0.0 0.0 1
C_28460 RECT_OPEN 3.7660 1.6240 0.0 0.0 1
C_28461 RECT_OPEN 3.7660 1.6240 0.0 0.0 1
C_28462 RECT_OPEN 3.3510 1.6240 0.0 0.0 1
C_28463 RECT_OPEN 3.3510 1.6240 0.0 0.0 1
C_28464 RECT_OPEN 3.3340 1.6240 0.0 0.0 1
C_28465 RECT_OPEN 3.3340 1.6240 0.0 0.0 1
C_28466 RECT_OPEN 3.3100 1.6240 0.0 0.0 1
C_28467 RECT_OPEN 3.3100 1.6240 0.0 0.0 1
C_28468 RECT_OPEN 3.2910 1.6240 0.0 0.0 1
C_28469 RECT_OPEN 3.2910 1.6240 0.0 0.0 1
C_28470 RECT_OPEN 2.6930 1.6240 0.0 0.0 1
C_28471 RECT_OPEN 2.6930 1.6240 0.0 0.0 1
C_28472 RECT_OPEN 3.4480 1.6870 0.0 0.0 1
C_28473 RECT_OPEN 3.4480 1.6870 0.0 0.0 1
C_28474 RECT_OPEN 3.4720 1.6870 0.0 0.0 1
C_28475 RECT_OPEN 3.4720 1.6870 0.0 0.0 1
C_28476 RECT_OPEN 2.4900 13.0000 0.0 0.0 1
C_28477 RECT_OPEN 2.4900 13.0000 0.0 0.0 1
C_28478 RECT_OPEN 2.4690 13.0000 0.0 0.0 1
C_28479 RECT_OPEN 2.4690 13.0000 0.0 0.0 1
C_28480 RECT_OPEN 2.2380 13.0000 0.0 0.0 1
C_28481 RECT_OPEN 2.2380 13.0000 0.0 0.0 1
C_28482 RECT_OPEN 2.2470 13.0000 0.0 0.0 1
C_28483 RECT_OPEN 2.2470 13.0000 0.0 0.0 1
C_28484 RECT_OPEN 2.1150 13.0000 0.0 0.0 1
C_28485 RECT_OPEN 2.1150 13.0000 0.0 0.0 1
C_28486 RECT_OPEN 2.1840 13.0000 0.0 0.0 1
C_28487 RECT_OPEN 2.1840 13.0000 0.0 0.0 1
C_28488 RECT_OPEN 2.1030 13.0000 0.0 0.0 1
C_28489 RECT_OPEN 2.1030 13.0000 0.0 0.0 1
C_28490 RECT_OPEN 2.0410 13.0000 0.0 0.0 1
C_28491 RECT_OPEN 2.0410 13.0000 0.0 0.0 1
C_28492 RECT_OPEN 2.2110 13.0000 0.0 0.0 1
C_28493 RECT_OPEN 2.2110 13.0000 0.0 0.0 1
C_28494 RECT_OPEN 2.0900 13.0000 0.0 0.0 1
C_28495 RECT_OPEN 2.0900 13.0000 0.0 0.0 1
C_28496 RECT_OPEN 2.1690 13.0000 0.0 0.0 1
C_28497 RECT_OPEN 2.1690 13.0000 0.0 0.0 1
C_28498 RECT_OPEN 2.1130 13.0000 0.0 0.0 1
C_28499 RECT_OPEN 2.1130 13.0000 0.0 0.0 1
C_28500 RECT_OPEN 2.1780 13.0000 0.0 0.0 1
C_28501 RECT_OPEN 2.1780 13.0000 0.0 0.0 1
C_28502 RECT_OPEN 2.0140 13.0000 0.0 0.0 1
C_28503 RECT_OPEN 2.0140 13.0000 0.0 0.0 1
C_28504 RECT_OPEN 2.0230 13.0000 0.0 0.0 1
C_28505 RECT_OPEN 2.0230 13.0000 0.0 0.0 1
C_28506 RECT_OPEN 2.0920 13.0000 0.0 0.0 1
C_28507 RECT_OPEN 2.0920 13.0000 0.0 0.0 1
C_28508 RECT_OPEN 1.9610 13.0000 0.0 0.0 1
C_28509 RECT_OPEN 1.9610 13.0000 0.0 0.0 1
C_28510 RECT_OPEN 2.3440 4.8000 0.0 0.0 1
C_28511 RECT_OPEN 2.3440 4.8000 0.0 0.0 1
C_28512 RECT_OPEN 2.3520 4.8000 0.0 0.0 1
C_28513 RECT_OPEN 2.3520 4.8000 0.0 0.0 1
C_28514 RECT_OPEN 2.3910 4.8000 0.0 0.0 1
C_28515 RECT_OPEN 2.3910 4.8000 0.0 0.0 1
C_28516 RECT_OPEN 2.4010 4.8000 0.0 0.0 1
C_28517 RECT_OPEN 2.4010 4.8000 0.0 0.0 1
C_28518 RECT_OPEN 2.4460 4.8000 0.0 0.0 1
C_28519 RECT_OPEN 2.4460 4.8000 0.0 0.0 1
C_28520 RECT_OPEN 2.4960 4.8000 0.0 0.0 1
C_28521 RECT_OPEN 2.4960 4.8000 0.0 0.0 1
C_28522 RECT_CLOSED 1.8920 2.0000 0.0 0.0 1
C_28523 RECT_CLOSED 1.5000 1.5000 0.0 0.0 1
C_28524 RECT_CLOSED 1.7340 2.0000 0.0 0.0 1
C_28525 RECT_CLOSED 1.7020 2.0000 0.0 0.0 1
C_28526 RECT_CLOSED 1.7210 2.0000 0.0 0.0 1
C_28528 RECT_CLOSED 1.6980 2.0000 0.0 0.0 1
C_28529 RECT_CLOSED 1.5370 1.5000 0.0 0.0 1
C_28531 RECT_CLOSED 1.5000 3.0000 0.0 0.0 1
C_28532 RECT_CLOSED 1.5000 2.0000 0.0 0.0 1
C_28533 RECT_CLOSED 1.5000 2.0000 0.0 0.0 1
C_28534 RECT_CLOSED 1.6340 1.5000 0.0 0.0 1
C_28535 RECT_CLOSED 1.6970 2.0000 0.0 0.0 1
C_28536 RECT_CLOSED 1.8150 2.0000 0.0 0.0 1
C_28537 RECT_CLOSED 1.7170 2.0000 0.0 0.0 1
C_28538 RECT_CLOSED 1.6480 2.0000 0.0 0.0 1
C_28539 RECT_CLOSED 1.6240 2.0000 0.0 0.0 1
C_28540 RECT_CLOSED 1.5330 2.0000 0.0 0.0 1
C_28541 RECT_CLOSED 1.6210 2.0000 0.0 0.0 1
C_28542 RECT_CLOSED 1.7980 1.5000 0.0 0.0 1
C_28543 RECT_CLOSED 1.8110 2.0000 0.0 0.0 1
C_28544 RECT_CLOSED 1.9730 2.0000 0.0 0.0 1
C_28545 RECT_CLOSED 1.9460 2.0000 0.0 0.0 1
C_28546 RECT_CLOSED 2.1760 2.0000 0.0 0.0 1
C_28547 RECT_CLOSED 1.8360 1.5000 0.0 0.0 1
C_28548 RECT_CLOSED 1.8740 2.0000 0.0 0.0 1
C_28549 RECT_CLOSED 2.0080 1.5000 0.0 0.0 1
C_28550 RECT_CLOSED 1.8740 2.0000 0.0 0.0 1
C_28551 RECT_CLOSED 1.8690 2.0000 0.0 0.0 1
C_28552 RECT_CLOSED 1.5000 1.5000 0.0 0.0 1
C_28553 RECT_CLOSED 1.5000 1.5000 0.0 0.0 1
C_28554 RECT_OPEN 1.6340 2.1650 0.0 0.0 1
C_28555 RECT_OPEN 1.6990 3.0000 0.0 0.0 1
C_28556 RECT_CLOSED 1.8920 2.0000 0.0 0.0 1
C_28557 RECT_CLOSED 1.5000 1.5000 0.0 0.0 1
C_28558 RECT_CLOSED 1.5000 1.5000 0.0 0.0 1
C_28559 RECT_OPEN 1.6500 3.0000 0.0 0.0 1
C_28560 RECT_CLOSED 1.6170 3.0000 0.0 0.0 1
C_28561 CIRCULAR 0.9000 0.9000 0.0 0.0 1
C_28562 CIRCULAR 0.9000 0.9000 0.0 0.0 1
C_28563 RECT_CLOSED 1.5000 1.5000 0.0 0.0 1
C_28564 CIRCULAR 0.9000 0.9000 0.0 0.0 1
C_28565 RECT_CLOSED 1.5000 1.5000 0.0 0.0 1
C_28566 CIRCULAR 0.9000 0.9000 0.0 0.0 1
C_28567 RECT_CLOSED 1.5000 1.5000 0.0 0.0 1
C_28568 CIRCULAR 0.9000 0.9000 0.0 0.0 1
C_28569 RECT_CLOSED 1.5000 1.5000 0.0 0.0 1
C_28570 RECT_CLOSED 1.2000 1.8000 0.0 0.0 1
C_28571 RECT_CLOSED 1.5000 1.5000 0.0 0.0 1
C_28572 RECT_CLOSED 1.2000 1.8000 0.0 0.0 1
C_28573 RECT_CLOSED 1.2000 1.8000 0.0 0.0 1
C_28574 RECT_CLOSED 1.5000 1.5000 0.0 0.0 1
C_28575 RECT_OPEN 2.4080 4.8000 0.0 0.0 1
C_28576 RECT_OPEN 2.4080 4.8000 0.0 0.0 1
C_28577 RECT_OPEN 2.2830 4.8000 0.0 0.0 1
C_28578 RECT_OPEN 2.2830 4.8000 0.0 0.0 1
C_28579 RECT_CLOSED 1.7500 1.8000 0.0 0.0 1
C_28580 RECT_CLOSED 1.7500 1.8000 0.0 0.0 1
C_28582 RECT_CLOSED 1.5000 1.5000 0.0 0.0 1
C_28584 RECT_CLOSED 1.4300 0.6000 0.0 0.0 1
C_28586 RECT_OPEN 2.1570 4.8000 0.0 0.0 1
C_28587 RECT_OPEN 2.1570 4.8000 0.0 0.0 1
C_28588 RECT_CLOSED 1.5950 0.6000 0.0 0.0 1
C_28589 RECT_OPEN 1.5980 1.8000 0.0 0.0 1
C_28591 RECT_OPEN 1.9390 1.8000 0.0 0.0 1
C_28592 RECT_OPEN 1.4980 1.8000 0.0 0.0 1
C_28593 RECT_OPEN 2.0970 4.8000 0.0 0.0 1
C_28594 RECT_OPEN 2.0970 4.8000 0.0 0.0 1
C_28595 RECT_OPEN 2.2230 4.8000 0.0 0.0 1
C_28596 RECT_OPEN 2.2230 4.8000 0.0 0.0 1
C_28597 RECT_OPEN 1.5000 1.8000 0.0 0.0 1
C_28598 RECT_OPEN 2.1640 4.8000 0.0 0.0 1
C_28599 RECT_OPEN 2.1640 4.8000 0.0 0.0 1
C_28600 RECT_OPEN 2.5920 4.8000 0.0 0.0 1
C_28601 RECT_OPEN 2.5920 4.8000 0.0 0.0 1
C_28602 RECT_OPEN 1.5000 1.8000 0.0 0.0 1
C_28606 RECT_OPEN 4.1010 14.4100 0.0 0.0 1
C_28607 RECT_OPEN 3.8340 14.2090 0.0 0.0 1
C_28608 RECT_OPEN 3.6450 14.7270 0.0 0.0 1
C_28609 RECT_OPEN 2.9840 14.5560 0.0 0.0 1
C_28610 RECT_OPEN 2.7560 14.4900 0.0 0.0 1
C_28611 RECT_OPEN 2.7350 14.4880 0.0 0.0 1
C_28612 RECT_OPEN 2.6920 14.4330 0.0 0.0 1
C_28613 RECT_CLOSED 3.2380 8.0000 0.0 0.0 1
C_28614 RECT_CLOSED 3.1870 8.0000 0.0 0.0 1
C_28615 RECT_OPEN 2.6220 5.7810 0.0 0.0 1
C_28616 RECT_OPEN 2.5360 12.7610 0.0 0.0 1
C_28617 RECT_OPEN 3.1570 12.7000 0.0 0.0 1
C_28618 RECT_OPEN 3.2510 13.9000 0.0 0.0 1
C_28619 RECT_OPEN 3.3200 10.7000 0.0 0.0 1
C_28620 RECT_OPEN 3.4550 8.2600 0.0 0.0 1
C_28621 RECT_OPEN 3.3880 8.2600 0.0 0.0 1
C_28622 RECT_OPEN 3.2630 13.0000 0.0 0.0 1
C_28623 RECT_OPEN 3.1570 13.0000 0.0 0.0 1
C_28624 RECT_OPEN 1.5000 1.5000 0.0 0.0 1
C_28625 RECT_OPEN 1.5000 1.5000 0.0 0.0 1
C_28632 RECT_OPEN 3.3150 12.5000 0.0 0.0 1
C_28633 RECT_OPEN 3.2110 13.1000 0.0 0.0 1
C_28634 RECT_OPEN 3.8020 11.0000 0.0 0.0 1
C_28635 RECT_OPEN 3.8910 12.0000 0.0 0.0 1
C_28636 RECT_OPEN 3.7700 11.0000 0.0 0.0 1
C_28637 RECT_CLOSED 4.0990 13.0000 0.0 0.0 1
C_28638 RECT_CLOSED 3.9890 13.0000 0.0 0.0 1
C_28639 RECT_OPEN 3.6910 12.8000 0.0 0.0 1
C_28640 RECT_OPEN 4.1280 12.0000 0.0 0.0 1
C_28641 RECT_OPEN 4.0560 12.0000 0.0 0.0 1
C_28642 RECT_OPEN 3.9540 12.0000 0.0 0.0 1
C_28643 RECT_OPEN 4.2190 12.0000 0.0 0.0 1
C_28644 RECT_OPEN 4.3050 12.0000 0.0 0.0 1
C_28645 RECT_OPEN 4.5030 7.3560 0.0 0.0 1
C_28646 RECT_OPEN 3.8910 7.3560 0.0 0.0 1
C_28647 RECT_CLOSED 3.6380 11.0000 0.0 0.0 1
C_28648 RECT_CLOSED 3.7560 13.0000 0.0 0.0 1
C_28649 RECT_OPEN 3.6010 13.0000 0.0 0.0 1
C_28650 RECT_OPEN 3.7240 13.0000 0.0 0.0 1
C_28651 RECT_OPEN 3.5850 13.0000 0.0 0.0 1
C_28652 RECT_OPEN 3.4940 13.0000 0.0 0.0 1
C_28653 RECT_OPEN 4.1550 13.0000 0.0 0.0 1
C_28654 RECT_OPEN 4.2590 13.0000 0.0 0.0 1
C_28655 RECT_CLOSED 4.1110 13.0000 0.0 0.0 1
C_28656 RECT_CLOSED 2.0000 4.0000 0.0 0.0 1
C_28657 RECT_CLOSED 4.2640 13.0000 0.0 0.0 1
C_28658 RECT_OPEN 3.2630 13.0000 0.0 0.0 1
C_28659 RECT_OPEN 3.2080 13.0000 0.0 0.0 1
C_28660 RECT_OPEN 2.9030 13.0000 0.0 0.0 1
C_28661 RECT_OPEN 3.3040 13.0000 0.0 0.0 1
C_28662 RECT_OPEN 3.3680 13.0000 0.0 0.0 1
C_28663 RECT_CLOSED 2.0000 4.0000 0.0 0.0 1
C_28664 RECT_CLOSED 2.0000 4.0000 0.0 0.0 1
C_28665 RECT_OPEN 2.4010 4.5000 0.0 0.0 1
C_28666 RECT_CLOSED 2.0000 6.0000 0.0 0.0 1
C_28667 RECT_CLOSED 1.7980 4.5000 0.0 0.0 1
C_28668 RECT_OPEN 1.9820 4.5000 0.0 0.0 1
C_28669 RECT_CLOSED 1.8640 5.0000 0.0 0.0 1
C_28670 RECT_CLOSED 2.0340 5.0000 0.0 0.0 1
C_28671 RECT_OPEN 2.0640 5.2120 0.0 0.0 1
C_28676 RECT_OPEN 3.9200 13.0000 0.0 0.0 1
C_28677 RECT_OPEN 3.6350 13.0000 0.0 0.0 1
C_28678 RECT_OPEN 3.3020 13.0000 0.0 0.0 1
C_28679 RECT_OPEN 3.5090 13.0000 0.0 0.0 1
C_28680 RECT_OPEN 3.1280 13.0000 0.0 0.0 1
C_28681 RECT_OPEN 2.9510 13.0000 0.0 0.0 1
C_28682 RECT_OPEN 3.3420 13.0000 0.0 0.0 1
C_28683 RECT_OPEN 2.9740 13.0000 0.0 0.0 1
C_28684 RECT_OPEN 2.9050 13.0000 0.0 0.0 1
C_28685 RECT_OPEN 3.0350 13.0000 0.0 0.0 1
C_28686 RECT_OPEN 3.3170 13.0000 0.0 0.0 1
C_28687 RECT_OPEN 3.2670 13.0000 0.0 0.0 1
C_28688 RECT_CLOSED 1.7750 4.5000 0.0 0.0 1
C_28689 RECT_CLOSED 1.7520 4.5000 0.0 0.0 1
C_28690 RECT_CLOSED 1.6480 4.5000 0.0 0.0 1
C_28691 RECT_OPEN 1.8380 2.4930 0.0 0.0 1
C_28692 RECT_OPEN 1.5850 2.1650 0.0 0.0 1
C_28693 RECT_OPEN 1.5150 2.1650 0.0 0.0 1
C_28694 RECT_OPEN 1.6440 2.0170 0.0 0.0 1
C_28695 RECT_OPEN 1.6720 2.1650 0.0 0.0 1
C_28696 RECT_OPEN 1.3850 2.1650 0.0 0.0 1
C_28697 RECT_CLOSED 2.3750 6.0000 0.0 0.0 1
C_28698 RECT_CLOSED 1.3970 2.0000 0.0 0.0 1
C_28699 RECT_OPEN 2.6050 5.2060 0.0 0.0 1
C_28700 RECT_OPEN 2.5280 7.8740 0.0 0.0 1
C_28701 RECT_OPEN 2.5800 5.3600 0.0 0.0 1
C_28702 RECT_OPEN 2.5630 6.3330 0.0 0.0 1
C_28703 RECT_CLOSED 1.3480 2.0000 0.0 0.0 1
C_28704 RECT_OPEN 2.4990 4.1460 0.0 0.0 1
C_28705 RECT_OPEN 2.6740 3.6190 0.0 0.0 1
C_28706 RECT_OPEN 2.6200 4.7830 0.0 0.0 1
C_28707 RECT_OPEN 2.5720 4.4550 0.0 0.0 1
C_28708 RECT_OPEN 2.5360 2.4400 0.0 0.0 1
C_28709 RECT_CLOSED 2.4660 12.0000 0.0 0.0 1
C_28710 RECT_CLOSED 2.4610 12.0000 0.0 0.0 1
C_28817 RECT_OPEN 3.1320 6.0000 0.0 0.0 1
C_28818 RECT_OPEN 3.1410 6.0000 0.0 0.0 1
C_28906 RECT_OPEN 3.1490 6.0000 0.0 0.0 1
C_28907 RECT_OPEN 3.1570 6.0000 0.0 0.0 1
C_28908 RECT_OPEN 2.0420 6.5000 0.0 0.0 1
C_28909 RECT_OPEN 2.1820 6.5000 0.0 0.0 1
C_28910 RECT_OPEN 2.5330 6.5000 0.0 0.0 1
C_28911 RECT_OPEN 2.7300 6.5000 0.0 0.0 1
C_28912 CIRCULAR 1.5000 1.5000 0.0 0.0 1
C_28913 CIRCULAR 1.5000 1.5000 0.0 0.0 1
C_28914 CIRCULAR 1.5000 1.5000 0.0 0.0 1
C_28915 RECT_CLOSED 3.7440 6.5000 0.0 0.0 1
C_28916 RECT_CLOSED 3.0000 6.0000 0.0 0.0 1
C_28917 RECT_CLOSED 3.0000 6.0000 0.0 0.0 1
C_28918 RECT_OPEN 2.2730 6.0000 0.0 0.0 1
C_28919 RECT_OPEN 2.2590 6.0000 0.0 0.0 1
C_28920 RECT_OPEN 2.2180 6.0000 0.0 0.0 1
C_28921 RECT_OPEN 1.9530 6.0000 0.0 0.0 1
C_28922 RECT_OPEN 1.7700 6.0000 0.0 0.0 1
C_28923 RECT_OPEN 2.1810 6.0000 0.0 0.0 1
C_28924 RECT_OPEN 3.5500 6.0000 0.0 0.0 1
C_28925 RECT_OPEN 4.7070 6.0000 0.0 0.0 1
C_28926 RECT_OPEN 5.8830 6.0000 0.0 0.0 1
C_28927 RECT_OPEN 3.7400 3.0000 0.0 0.0 1
C_28928 RECT_OPEN 4.4190 3.0000 0.0 0.0 1
C_28929 RECT_CLOSED 5.3240 5.0000 0.0 0.0 1
C_28930 RECT_OPEN 5.3980 3.0000 0.0 0.0 1
C_28931 RECT_OPEN 3.8110 3.0000 0.0 0.0 1
C_28932 RECT_OPEN 3.8260 3.0000 0.0 0.0 1
C_28933 RECT_OPEN 3.7890 3.0000 0.0 0.0 1
C_28934 RECT_OPEN 3.8970 3.0000 0.0 0.0 1
C_28935 RECT_OPEN 4.4710 3.0000 0.0 0.0 1
C_28936 RECT_OPEN 2.6820 6.5000 0.0 0.0 1
C_28937 RECT_OPEN 2.8700 6.5000 0.0 0.0 1
C_28938 RECT_CLOSED 2.8300 4.5000 0.0 0.0 1
C_28939 RECT_OPEN 2.8550 3.0000 0.0 0.0 1
C_28940 RECT_OPEN 2.9040 3.0000 0.0 0.0 1
C_28941 RECT_OPEN 3.4880 6.5000 0.0 0.0 1
C_28942 RECT_OPEN 1.9250 6.0000 0.0 0.0 1
C_28943 RECT_OPEN 1.7750 6.0000 0.0 0.0 1
C_28944 RECT_OPEN 1.7270 6.0000 0.0 0.0 1
C_28945 RECT_OPEN 2.3960 6.0000 0.0 0.0 1
C_28946 RECT_OPEN 2.3910 6.0000 0.0 0.0 1
C_28947 RECT_CLOSED 3.7150 3.0000 0.0 0.0 1
C_28948 RECT_CLOSED 3.5850 3.0000 0.0 0.0 1
C_28949 RECT_CLOSED 3.4490 3.0000 0.0 0.0 1
C_28950 RECT_CLOSED 3.6130 3.0000 0.0 0.0 1
C_28951 RECT_OPEN 4.2550 3.0000 0.0 0.0 1
C_28952 RECT_OPEN 4.2120 3.0000 0.0 0.0 1
C_28953 RECT_OPEN 2.9510 3.0000 0.0 0.0 1
C_28954 RECT_OPEN 2.9990 3.0000 0.0 0.0 1
C_28955 RECT_OPEN 3.0830 3.0000 0.0 0.0 1
C_28956 RECT_OPEN 2.3880 6.0000 0.0 0.0 1
C_28957 RECT_OPEN 2.3760 6.0000 0.0 0.0 1
C_28958 RECT_OPEN 2.4490 6.0000 0.0 0.0 1
C_28959 RECT_OPEN 2.2460 6.0000 0.0 0.0 1
C_28960 RECT_OPEN 2.8770 6.0000 0.0 0.0 1
C_28961 RECT_CLOSED 2.8770 6.0000 0.0 0.0 1
C_28962 RECT_OPEN 4.1750 3.0000 0.0 0.0 1
C_28963 RECT_OPEN 4.2630 3.0000 0.0 0.0 1
C_28964 RECT_CLOSED 4.2600 3.0000 0.0 0.0 1
C_28965 RECT_OPEN 4.3010 3.0000 0.0 0.0 1
C_28966 RECT_OPEN 4.0680 3.0000 0.0 0.0 1
C_28967 RECT_OPEN 3.0710 3.0000 0.0 0.0 1
C_28968 RECT_OPEN 2.4610 3.0000 0.0 0.0 1
C_28969 RECT_CLOSED 2.9580 3.0000 0.0 0.0 1
C_28970 RECT_OPEN 3.1560 3.0000 0.0 0.0 1
C_28971 RECT_OPEN 3.1790 3.0000 0.0 0.0 1
C_28972 RECT_CLOSED 2.9700 6.0000 0.0 0.0 1
C_28973 RECT_OPEN 2.0290 3.8000 0.0 0.0 1
C_28974 RECT_OPEN 1.8550 5.0000 0.0 0.0 1
C_28975 RECT_CLOSED 1.8250 5.0000 0.0 0.0 1
C_28976 RECT_OPEN 1.9160 3.8000 0.0 0.0 1
C_28977 RECT_OPEN 1.6590 6.0000 0.0 0.0 1
C_28978 RECT_CLOSED 2.5150 6.0000 0.0 0.0 1
C_28979 RECT_OPEN 2.5150 5.0000 0.0 0.0 1
C_28980 RECT_OPEN 2.3920 5.0000 0.0 0.0 1
C_28981 RECT_OPEN 1.9730 5.0000 0.0 0.0 1
C_28982 RECT_CLOSED 4.8030 3.0000 0.0 0.0 1
C_28983 RECT_OPEN 4.3620 3.0000 0.0 0.0 1
C_28984 RECT_OPEN 3.8940 3.0000 0.0 0.0 1
C_28985 RECT_OPEN 5.2860 3.0000 0.0 0.0 1
C_28986 RECT_CLOSED 4.6970 3.0000 0.0 0.0 1
C_28987 RECT_OPEN 5.1630 3.0000 0.0 0.0 1
C_28988 RECT_OPEN 5.2390 3.0000 0.0 0.0 1
C_28989 RECT_OPEN 5.1890 3.0000 0.0 0.0 1
C_28990 RECT_OPEN 3.5150 3.0000 0.0 0.0 1
C_28991 RECT_OPEN 3.3070 3.0000 0.0 0.0 1
C_28992 RECT_CLOSED 2.8580 3.0000 0.0 0.0 1
C_28993 RECT_CLOSED 3.0350 3.0000 0.0 0.0 1
C_28994 RECT_CLOSED 2.7930 3.0000 0.0 0.0 1
C_28996 RECT_CLOSED 2.7380 3.0000 0.0 0.0 1
C_28997 RECT_CLOSED 1.9400 7.0000 0.0 0.0 1
C_28998 RECT_OPEN 1.8050 7.0000 0.0 0.0 1
C_28999 RECT_OPEN 1.7900 5.0000 0.0 0.0 1
C_29000 RECT_OPEN 1.8030 5.0000 0.0 0.0 1
C_29001 RECT_OPEN 2.5730 6.8000 0.0 0.0 1
C_29002 RECT_OPEN 1.3160 6.0000 0.0 0.0 1
C_29003 RECT_OPEN 1.1460 5.0000 0.0 0.0 1
C_29004 RECT_CLOSED 4.6520 3.0000 0.0 0.0 1
C_29005 RECT_CLOSED 4.9040 3.0000 0.0 0.0 1
C_29006 RECT_CLOSED 4.8590 3.0000 0.0 0.0 1
C_29007 RECT_CLOSED 4.8690 3.0000 0.0 0.0 1
C_29008 RECT_CLOSED 4.8460 3.0000 0.0 0.0 1
C_29009 RECT_OPEN 4.8980 3.0000 0.0 0.0 1
C_29011 RECT_OPEN 1.8310 4.1000 0.0 0.0 1
C_29012 RECT_OPEN 2.4360 4.1000 0.0 0.0 1
C_29013 RECT_OPEN 2.5770 5.1200 0.0 0.0 1
C_29014 RECT_CLOSED 2.5530 5.1200 0.0 0.0 1
C_29015 RECT_OPEN 1.7200 4.1000 0.0 0.0 1
C_29016 RECT_OPEN 1.7400 4.1000 0.0 0.0 1
C_29017 RECT_OPEN 1.0120 5.0000 0.0 0.0 1
C_29018 RECT_OPEN 1.3620 5.0000 0.0 0.0 1
C_29019 RECT_OPEN 1.6340 5.0000 0.0 0.0 1
C_29020 RECT_OPEN 1.7700 4.1000 0.0 0.0 1
C_29021 RECT_OPEN 1.7660 4.1000 0.0 0.0 1
C_29022 RECT_OPEN 1.7980 4.1000 0.0 0.0 1
C_29023 RECT_OPEN 4.5000 3.0000 0.0 0.0 1
C_29024 RECT_OPEN 4.4740 3.0000 0.0 0.0 1
C_29025 RECT_OPEN 4.3690 3.0000 0.0 0.0 1
C_29026 RECT_OPEN 4.2150 3.0000 0.0 0.0 1
C_29028 RECT_OPEN 1.7270 4.1000 0.0 0.0 1
C_29029 RECT_OPEN 1.9900 4.2000 0.0 0.0 1
C_29031 RECT_OPEN 4.0000 3.0000 0.0 0.0 1
C_29032 RECT_CLOSED 1.0000 0.9000 0.0 0.0 1
C_29034 RECT_OPEN 1.0000 0.9000 0.0 0.0 1
C_29036 RECT_OPEN 1.0000 0.9000 0.0 0.0 1
C_29037 RECT_CLOSED 1.0000 0.9000 0.0 0.0 1
C_29042 RECT_CLOSED 1.0000 0.9000 0.0 0.0 1
C_29050 RECT_OPEN 1.7510 8.0000 0.0 0.0 1
C_29051 RECT_CLOSED 1.7110 8.0000 0.0 0.0 1
C_29052 RECT_OPEN 1.7750 8.0000 0.0 0.0 1
C_29053 RECT_OPEN 1.6510 8.0000 0.0 0.0 1
C_29054 RECT_OPEN 1.6910 8.0000 0.0 0.0 1
C_29055 RECT_OPEN 1.6040 8.0000 0.0 0.0 1
C_29056 RECT_OPEN 1.6060 8.0000 0.0 0.0 1
C_29057 RECT_OPEN 1.6130 8.0000 0.0 0.0 1
C_29058 RECT_OPEN 1.5660 8.0000 0.0 0.0 1
C_29059 RECT_OPEN 1.5080 8.0000 0.0 0.0 1
C_29060 RECT_OPEN 1.5380 8.0000 0.0 0.0 1
C_29061 RECT_OPEN 1.4720 8.0000 0.0 0.0 1
C_29062 RECT_OPEN 1.4440 8.0000 0.0 0.0 1
C_29063 RECT_OPEN 1.4070 8.0000 0.0 0.0 1
C_29064 RECT_OPEN 1.3010 4.0000 0.0 0.0 1
C_29065 RECT_OPEN 1.4370 4.0000 0.0 0.0 1
C_29066 RECT_OPEN 1.7310 4.0000 0.0 0.0 1
C_29067 RECT_OPEN 1.8410 4.0000 0.0 0.0 1
C_29068 RECT_OPEN 1.5210 4.0000 0.0 0.0 1
C_29069 RECT_OPEN 1.4240 4.0000 0.0 0.0 1
C_29070 RECT_OPEN 1.2720 4.0000 0.0 0.0 1
C_29071 RECT_OPEN 1.0930 4.0000 0.0 0.0 1
C_29072 RECT_OPEN 0.9790 4.0000 0.0 0.0 1
C_29073 RECT_OPEN 1.7060 4.0000 0.0 0.0 1
C_29074 RECT_OPEN 1.6380 4.0000 0.0 0.0 1
C_29075 RECT_CLOSED 2.1980 4.0000 0.0 0.0 1
C_29076 RECT_CLOSED 2.4960 4.0000 0.0 0.0 1
C_29077 RECT_CLOSED 2.3290 4.0000 0.0 0.0 1
C_29078 RECT_CLOSED 1.8840 2.7000 0.0 0.0 1
C_29079 RECT_CLOSED 1.9620 2.7000 0.0 0.0 1
C_29080 RECT_CLOSED 1.5580 2.7000 0.0 0.0 1
C_29082 RECT_OPEN 3.2980 4.0000 0.0 0.0 1
C_29085 RECT_OPEN 3.0380 4.0000 0.0 0.0 1
C_29088 RECT_OPEN 2.3250 4.0000 0.0 0.0 1
C_29104 RECT_OPEN 1.7270 3.5000 0.0 0.0 1
C_29105 RECT_CLOSED 1.5570 6.0000 0.0 0.0 1
C_29106 RECT_OPEN 1.7430 12.0000 0.0 0.0 1
C_29107 RECT_OPEN 1.7550 12.0000 0.0 0.0 1
C_29108 RECT_OPEN 1.3440 7.0000 0.0 0.0 1
C_29109 RECT_OPEN 1.4290 7.0000 0.0 0.0 1
C_29110 RECT_OPEN 1.4690 4.4260 0.0 0.0 1
C_29111 RECT_OPEN 1.9700 3.5740 0.0 0.0 1
C_29112 RECT_OPEN 1.7830 3.6120 0.0 0.0 1
C_29113 RECT_OPEN 1.6250 3.5670 0.0 0.0 1
C_29114 RECT_OPEN 1.5470 3.4080 0.0 0.0 1
C_29115 RECT_OPEN 1.4990 6.0000 0.0 0.0 1
C_29116 RECT_OPEN 1.5630 5.1220 0.0 0.0 1
C_29117 RECT_OPEN 1.5750 4.9810 0.0 0.0 1
C_29118 RECT_OPEN 1.5720 4.9560 0.0 0.0 1
C_29119 RECT_OPEN 1.5630 4.9720 0.0 0.0 1
C_29120 RECT_OPEN 1.5500 4.6760 0.0 0.0 1
C_29121 RECT_OPEN 1.6290 5.0000 0.0 0.0 1
C_29122 RECT_OPEN 1.5700 5.0000 0.0 0.0 1
C_29123 RECT_OPEN 1.4700 5.0000 0.0 0.0 1
C_29124 RECT_OPEN 1.6000 5.0000 0.0 0.0 1
C_29125 RECT_OPEN 1.4910 3.6540 0.0 0.0 1
C_29126 RECT_OPEN 1.6940 3.5000 0.0 0.0 1
C_29127 RECT_OPEN 1.5580 3.5000 0.0 0.0 1
C_29128 RECT_OPEN 1.5460 5.0200 0.0 0.0 1
C_29129 RECT_OPEN 1.5350 5.0730 0.0 0.0 1
C_29130 RECT_OPEN 1.3930 5.0000 0.0 0.0 1
C_29131 RECT_OPEN 1.5370 5.2140 0.0 0.0 1
C_29132 RECT_CLOSED 1.3710 5.0000 0.0 0.0 1
C_29133 RECT_CLOSED 1.6300 7.0000 0.0 0.0 1
C_29134 RECT_OPEN 0.5670 5.0000 0.0 0.0 1
C_29135 RECT_OPEN 1.5550 7.0000 0.0 0.0 1
C_29136 RECT_OPEN 1.5640 7.0000 0.0 0.0 1
C_29137 RECT_CLOSED 1.7410 7.0000 0.0 0.0 1
C_29138 RECT_OPEN 2.4260 4.0000 0.0 0.0 1
C_29139 RECT_OPEN 2.5240 4.0000 0.0 0.0 1
C_29140 RECT_OPEN 2.4550 4.0000 0.0 0.0 1
C_29141 RECT_OPEN 2.5940 4.0000 0.0 0.0 1
C_29142 RECT_OPEN 2.4220 4.0000 0.0 0.0 1
C_29143 RECT_OPEN 2.3870 4.0000 0.0 0.0 1
C_29144 RECT_OPEN 2.4750 4.0000 0.0 0.0 1
C_29145 RECT_OPEN 2.4170 4.0000 0.0 0.0 1
C_29146 RECT_OPEN 1.6580 3.5000 0.0 0.0 1
C_29147 RECT_OPEN 1.6240 3.6320 0.0 0.0 1
C_29148 RECT_OPEN 1.7080 3.6330 0.0 0.0 1
C_29149 RECT_OPEN 1.6430 3.6040 0.0 0.0 1
C_29150 RECT_OPEN 2.3440 5.2660 0.0 0.0 1
C_29151 RECT_OPEN 1.8270 5.0000 0.0 0.0 1
C_29152 RECT_OPEN 2.0860 5.0000 0.0 0.0 1
C_29153 RECT_OPEN 2.3710 5.0000 0.0 0.0 1
C_29154 RECT_OPEN 2.4050 5.0000 0.0 0.0 1
C_29155 RECT_CLOSED 2.4010 5.0000 0.0 0.0 1
C_29157 RECT_OPEN 2.3300 4.0000 0.0 0.0 1
C_29158 RECT_OPEN 2.3620 4.0000 0.0 0.0 1
C_29159 RECT_OPEN 2.2480 4.0000 0.0 0.0 1
C_29160 RECT_OPEN 2.1780 4.0000 0.0 0.0 1
C_29161 RECT_OPEN 1.6640 3.5000 0.0 0.0 1
C_29162 RECT_OPEN 1.5980 3.3040 0.0 0.0 1
C_29163 RECT_OPEN 2.1050 4.0000 0.0 0.0 1
C_29164 RECT_OPEN 2.0790 4.0000 0.0 0.0 1
C_29165 RECT_OPEN 1.6260 3.5000 0.0 0.0 1
C_29166 RECT_CLOSED 2.3650 5.0000 0.0 0.0 1
C_29167 RECT_CLOSED 2.3310 5.0000 0.0 0.0 1
C_29168 RECT_CLOSED 2.2940 5.0000 0.0 0.0 1
C_29169 RECT_CLOSED 2.2380 5.0000 0.0 0.0 1
C_29170 RECT_OPEN 2.1800 5.0000 0.0 0.0 1
C_29171 RECT_OPEN 2.0400 5.0000 0.0 0.0 1
C_29173 RECT_OPEN 2.0080 4.0000 0.0 0.0 1
C_29174 RECT_OPEN 2.2250 4.0000 0.0 0.0 1
C_29175 RECT_OPEN 2.4100 3.7960 0.0 0.0 1
C_29176 RECT_OPEN 2.3750 9.0000 0.0 0.0 1
C_29177 RECT_OPEN 2.4330 3.5000 0.0 0.0 1
C_29178 RECT_CLOSED 1.5000 1.5000 0.0 0.0 1
C_29179 RECT_OPEN 2.0020 5.0000 0.0 0.0 1
C_29180 RECT_CLOSED 2.0080 7.0000 0.0 0.0 1
C_29182 RECT_OPEN 1.9950 7.0000 0.0 0.0 1
C_29183 RECT_OPEN 1.9040 4.6130 0.0 0.0 1
C_29185 RECT_CLOSED 1.5000 1.5000 0.0 0.0 1
C_29186 RECT_CLOSED 1.5000 1.5000 0.0 0.0 1
C_29188 RECT_CLOSED 1.5000 1.5000 0.0 0.0 1
C_29189 RECT_CLOSED 1.5000 1.5000 0.0 0.0 1
C_29193 RECT_CLOSED 1.5000 1.5000 0.0 0.0 1
C_29194 RECT_CLOSED 1.5000 1.5000 0.0 0.0 1
C_29195 RECT_CLOSED 1.5000 1.5000 0.0 0.0 1
C_29197 RECT_CLOSED 1.5000 1.5000 0.0 0.0 1
C_29198 RECT_CLOSED 1.5000 1.5000 0.0 0.0 1
C_29199 RECT_CLOSED 1.5000 1.5000 0.0 0.0 1
C_29203 RECT_OPEN 2.2390 13.0000 0.0 0.0 1
C_29204 RECT_OPEN 2.2390 13.0000 0.0 0.0 1
C_29205 RECT_OPEN 2.0820 4.8000 0.0 0.0 1
C_29206 RECT_OPEN 2.0820 4.8000 0.0 0.0 1
C_29207 RECT_OPEN 2.8940 13.0000 0.0 0.0 1
C_29208 RECT_OPEN 2.8940 13.0000 0.0 0.0 1
C_29209 RECT_CLOSED 3.0570 13.0000 0.0 0.0 1
C_29210 RECT_CLOSED 3.0570 13.0000 0.0 0.0 1
C_29211 RECT_CLOSED 2.5320 13.0000 0.0 0.0 1
C_29212 RECT_CLOSED 2.5320 13.0000 0.0 0.0 1
C_29213 RECT_CLOSED 1.5790 4.5000 0.0 0.0 1
C_29214 RECT_CLOSED 1.5790 4.5000 0.0 0.0 1
C_29215 RECT_CLOSED 1.7400 4.5000 0.0 0.0 1
C_29216 RECT_CLOSED 1.7400 4.5000 0.0 0.0 1
C_29217 RECT_OPEN 2.7240 13.0000 0.0 0.0 1
C_29218 RECT_OPEN 2.7240 13.0000 0.0 0.0 1
C_29219 RECT_OPEN 2.5270 9.6000 0.0 0.0 1
C_29220 RECT_OPEN 2.5270 9.6000 0.0 0.0 1
C_29221 RECT_OPEN 2.2420 4.8000 0.0 0.0 1
C_29222 RECT_OPEN 2.2420 4.8000 0.0 0.0 1
C_29223 RECT_CLOSED 1.4480 4.5000 0.0 0.0 1
C_29224 RECT_CLOSED 1.4480 4.5000 0.0 0.0 1
C_29225 RECT_CLOSED 1.5870 4.5000 0.0 0.0 1
C_29226 RECT_CLOSED 1.5870 4.5000 0.0 0.0 1
C_29227 RECT_CLOSED 1.4780 4.5000 0.0 0.0 1
C_29228 RECT_CLOSED 1.4780 4.5000 0.0 0.0 1
C_29229 RECT_CLOSED 1.5960 4.5000 0.0 0.0 1
C_29230 RECT_CLOSED 1.5960 4.5000 0.0 0.0 1
C_29231 RECT_CLOSED 1.6970 4.5000 0.0 0.0 1
C_29232 RECT_CLOSED 1.6970 4.5000 0.0 0.0 1
C_29233 RECT_CLOSED 2.0080 4.5000 0.0 0.0 1
C_29234 RECT_CLOSED 2.0080 4.5000 0.0 0.0 1
C_29235 RECT_CLOSED 1.7850 4.5000 0.0 0.0 1
C_29236 RECT_CLOSED 1.7850 4.5000 0.0 0.0 1
C_29239 RECT_OPEN 2.4910 9.6000 0.0 0.0 1
C_29240 RECT_OPEN 2.4910 9.6000 0.0 0.0 1
C_29241 RECT_OPEN 2.6900 9.6000 0.0 0.0 1
C_29242 RECT_OPEN 2.6900 9.6000 0.0 0.0 1
C_29243 RECT_OPEN 2.3650 9.6000 0.0 0.0 1
C_29244 RECT_OPEN 2.3650 9.6000 0.0 0.0 1
C_29245 RECT_OPEN 2.5540 9.6000 0.0 0.0 1
C_29246 RECT_OPEN 2.5540 9.6000 0.0 0.0 1
C_29247 RECT_OPEN 2.4990 9.6000 0.0 0.0 1
C_29248 RECT_OPEN 2.4990 9.6000 0.0 0.0 1
C_29251 RECT_OPEN 2.4950 9.6000 0.0 0.0 1
C_29252 RECT_OPEN 2.4950 9.6000 0.0 0.0 1
C_29253 RECT_OPEN 2.5490 9.6000 0.0 0.0 1
C_29254 RECT_OPEN 2.5490 9.6000 0.0 0.0 1
C_29255 RECT_OPEN 2.0470 7.2000 0.0 0.0 1
C_29256 RECT_OPEN 2.0470 7.2000 0.0 0.0 1
C_29257 RECT_OPEN 2.6740 7.2000 0.0 0.0 1
C_29258 RECT_OPEN 2.6740 7.2000 0.0 0.0 1
C_29259 RECT_OPEN 2.4900 9.6000 0.0 0.0 1
C_29260 RECT_OPEN 2.4900 9.6000 0.0 0.0 1
C_29265 RECT_OPEN 1.8250 4.7990 0.0 0.0 1
C_29266 RECT_OPEN 1.9510 5.0880 0.0 0.0 1
C_29267 RECT_OPEN 1.8050 5.3210 0.0 0.0 1
C_29274 RECT_OPEN 2.0130 5.0000 0.0 0.0 1
C_29275 RECT_OPEN 2.1700 5.1890 0.0 0.0 1
C_29276 RECT_OPEN 2.1520 14.0000 0.0 0.0 1
C_29278 RECT_OPEN 2.1510 14.0000 0.0 0.0 1
C_29279 RECT_OPEN 2.3420 14.0000 0.0 0.0 1
C_29301 RECT_OPEN 2.3010 14.0000 0.0 0.0 1
C_29302 RECT_OPEN 2.3590 14.0000 0.0 0.0 1
C_29303 RECT_OPEN 2.3380 14.0000 0.0 0.0 1
C_29318 RECT_OPEN 2.3020 14.0000 0.0 0.0 1
C_29319 RECT_OPEN 2.2810 14.0000 0.0 0.0 1
C_29320 RECT_OPEN 2.1400 14.0000 0.0 0.0 1
C_29321 RECT_OPEN 2.2420 14.0000 0.0 0.0 1
C_29340 RECT_OPEN 2.2090 14.0000 0.0 0.0 1
C_29341 RECT_OPEN 2.1880 14.0000 0.0 0.0 1
C_29342 RECT_OPEN 2.1750 14.0000 0.0 0.0 1
C_29343 RECT_OPEN 2.1840 14.0000 0.0 0.0 1
C_29346 RECT_CLOSED 1.8530 4.5000 0.0 0.0 1
C_29347 RECT_CLOSED 1.8530 4.5000 0.0 0.0 1
C_29348 RECT_CLOSED 1.9100 4.5000 0.0 0.0 1
C_29349 RECT_CLOSED 1.9100 4.5000 0.0 0.0 1
C_29350 RECT_CLOSED 1.8230 4.5000 0.0 0.0 1
C_29351 RECT_CLOSED 1.8230 4.5000 0.0 0.0 1
C_29352 RECT_CLOSED 2.0860 3.5000 0.0 0.0 1
C_29353 RECT_CLOSED 2.0860 3.5000 0.0 0.0 1
C_29354 RECT_CLOSED 2.0990 3.5000 0.0 0.0 1
C_29355 RECT_CLOSED 2.0990 3.5000 0.0 0.0 1
C_29356 RECT_CLOSED 1.9700 3.3340 0.0 0.0 1
C_29357 RECT_CLOSED 1.9700 3.3340 0.0 0.0 1
C_29358 RECT_CLOSED 2.1770 4.5000 0.0 0.0 1
C_29359 RECT_CLOSED 2.1770 4.5000 0.0 0.0 1
C_29360 RECT_CLOSED 1.8180 4.5000 0.0 0.0 1
C_29361 RECT_CLOSED 1.8180 4.5000 0.0 0.0 1
C_29362 RECT_CLOSED 2.1930 3.5000 0.0 0.0 1
C_29363 RECT_CLOSED 2.1930 3.5000 0.0 0.0 1
C_29364 RECT_CLOSED 2.1930 3.5000 0.0 0.0 1
C_29365 RECT_CLOSED 2.1930 3.5000 0.0 0.0 1
C_29366 RECT_CLOSED 2.1840 3.5000 0.0 0.0 1
C_29367 RECT_CLOSED 2.1840 3.5000 0.0 0.0 1
C_29368 RECT_CLOSED 2.0640 3.5000 0.0 0.0 1
C_29369 RECT_CLOSED 2.0640 3.5000 0.0 0.0 1
C_29370 RECT_CLOSED 2.7530 3.5000 0.0 0.0 1
C_29371 RECT_CLOSED 2.7530 3.5000 0.0 0.0 1
C_29372 RECT_CLOSED 2.7720 3.5000 0.0 0.0 1
C_29373 RECT_CLOSED 2.7720 3.5000 0.0 0.0 1
C_29374 RECT_CLOSED 2.3190 3.5000 0.0 0.0 1
C_29375 RECT_CLOSED 2.3190 3.5000 0.0 0.0 1
C_29376 RECT_OPEN 2.8240 7.0000 0.0 0.0 1
C_29377 RECT_OPEN 2.8240 7.0000 0.0 0.0 1
C_29378 RECT_CLOSED 2.1100 3.5000 0.0 0.0 1
C_29379 RECT_CLOSED 2.1100 3.5000 0.0 0.0 1
C_29380 RECT_CLOSED 2.1100 3.5000 0.0 0.0 1
C_29381 RECT_CLOSED 2.1100 3.5000 0.0 0.0 1
C_29382 RECT_CLOSED 1.9970 3.5000 0.0 0.0 1
C_29383 RECT_CLOSED 1.9970 3.5000 0.0 0.0 1
C_29384 RECT_CLOSED 2.0850 4.0000 0.0 0.0 1
C_29385 RECT_CLOSED 2.0850 4.0000 0.0 0.0 1
C_29386 RECT_CLOSED 2.1360 4.0000 0.0 0.0 1
C_29387 RECT_CLOSED 2.1360 4.0000 0.0 0.0 1
C_29388 RECT_OPEN 1.5000 1.5000 0.0 0.0 1
C_29389 RECT_OPEN 1.5000 1.5000 0.0 0.0 1
C_29390 RECT_OPEN 1.5000 1.5000 0.0 0.0 1
C_29391 RECT_OPEN 1.5000 1.5000 0.0 0.0 1
C_29392 RECT_OPEN 2.1360 5.4000 0.0 0.0 1
C_29393 RECT_OPEN 2.1360 5.4000 0.0 0.0 1
C_29394 RECT_OPEN 2.1250 6.0000 0.0 0.0 1
C_29395 RECT_OPEN 2.1250 6.0000 0.0 0.0 1
C_29396 RECT_OPEN 1.4990 7.2000 0.0 0.0 1
C_29397 RECT_OPEN 1.4990 7.2000 0.0 0.0 1
C_29398 RECT_OPEN 1.8870 4.5000 0.0 0.0 1
C_29399 RECT_OPEN 1.8870 4.5000 0.0 0.0 1
C_29400 RECT_OPEN 3.2480 7.0900 0.0 0.0 1
C_29401 RECT_OPEN 3.2480 7.0900 0.0 0.0 1
C_29402 RECT_OPEN 3.5000 6.9230 0.0 0.0 1
C_29403 RECT_OPEN 3.5000 6.9230 0.0 0.0 1
C_29404 RECT_OPEN 3.4970 4.5000 0.0 0.0 1
C_29405 RECT_OPEN 3.4970 4.5000 0.0 0.0 1
C_29406 RECT_CLOSED 3.0240 4.0000 0.0 0.0 1
C_29407 RECT_CLOSED 3.0240 4.0000 0.0 0.0 1
C_29408 RECT_CLOSED 3.0670 4.0000 0.0 0.0 1
C_29409 RECT_CLOSED 3.0670 4.0000 0.0 0.0 1
C_29410 RECT_CLOSED 3.3010 4.0000 0.0 0.0 1
C_29411 RECT_CLOSED 3.3010 4.0000 0.0 0.0 1
C_29412 RECT_OPEN 3.4350 4.0000 0.0 0.0 1
C_29413 RECT_OPEN 3.4350 4.0000 0.0 0.0 1
C_29414 RECT_OPEN 1.5940 7.2000 0.0 0.0 1
C_29415 RECT_OPEN 1.5940 7.2000 0.0 0.0 1
C_29416 RECT_OPEN 1.5610 7.2000 0.0 0.0 1
C_29417 RECT_OPEN 1.5610 7.2000 0.0 0.0 1
C_29418 RECT_OPEN 1.5250 7.2000 0.0 0.0 1
C_29419 RECT_OPEN 1.5250 7.2000 0.0 0.0 1
C_29420 RECT_OPEN 1.6330 7.2000 0.0 0.0 1
C_29421 RECT_OPEN 1.6330 7.2000 0.0 0.0 1
C_29422 RECT_OPEN 1.6030 4.8000 0.0 0.0 1
C_29423 RECT_OPEN 1.6030 4.8000 0.0 0.0 1
C_29424 RECT_OPEN 1.6210 7.2000 0.0 0.0 1
C_29425 RECT_OPEN 1.6210 7.2000 0.0 0.0 1
C_29426 RECT_CLOSED 1.6110 4.8000 0.0 0.0 1
C_29427 RECT_CLOSED 1.6110 4.8000 0.0 0.0 1
C_29428 RECT_OPEN 1.4360 4.8000 0.0 0.0 1
C_29429 RECT_OPEN 1.4360 4.8000 0.0 0.0 1
C_29430 RECT_CLOSED 1.4050 4.8000 0.0 0.0 1
C_29431 RECT_CLOSED 1.4050 4.8000 0.0 0.0 1
C_29432 RECT_OPEN 1.4680 4.8000 0.0 0.0 1
C_29433 RECT_OPEN 1.4680 4.8000 0.0 0.0 1
C_29434 RECT_OPEN 3.0570 7.0900 0.0 0.0 1
C_29435 RECT_OPEN 3.0570 7.0900 0.0 0.0 1
C_29436 RECT_OPEN 3.1060 7.0000 0.0 0.0 1
C_29437 RECT_OPEN 3.1060 7.0000 0.0 0.0 1
C_29438 RECT_CLOSED 3.7200 4.0000 0.0 0.0 1
C_29439 RECT_CLOSED 3.7200 4.0000 0.0 0.0 1
C_29440 RECT_OPEN 3.8940 4.0000 0.0 0.0 1
C_29441 RECT_OPEN 3.8940 4.0000 0.0 0.0 1
C_29442 RECT_OPEN 3.8890 4.0000 0.0 0.0 1
C_29443 RECT_OPEN 3.8890 4.0000 0.0 0.0 1
C_29444 RECT_OPEN 1.1610 4.8000 0.0 0.0 1
C_29445 RECT_OPEN 1.1610 4.8000 0.0 0.0 1
C_29446 RECT_OPEN 1.4980 4.8000 0.0 0.0 1
C_29447 RECT_OPEN 1.4980 4.8000 0.0 0.0 1
C_29448 RECT_CLOSED 1.5030 4.8000 0.0 0.0 1
C_29449 RECT_CLOSED 1.5030 4.8000 0.0 0.0 1
C_29450 RECT_OPEN 3.6530 4.0000 0.0 0.0 1
C_29451 RECT_OPEN 3.6530 4.0000 0.0 0.0 1
C_29452 RECT_OPEN 3.5820 7.0000 0.0 0.0 1
C_29453 RECT_OPEN 3.5820 7.0000 0.0 0.0 1
C_29454 RECT_OPEN 3.2070 4.0000 0.0 0.0 1
C_29455 RECT_OPEN 3.2070 4.0000 0.0 0.0 1
C_29456 RECT_OPEN 2.8620 4.0000 0.0 0.0 1
C_29457 RECT_OPEN 2.8620 4.0000 0.0 0.0 1
C_29458 RECT_OPEN 2.9260 4.0000 0.0 0.0 1
C_29459 RECT_OPEN 2.9260 4.0000 0.0 0.0 1
C_29460 RECT_OPEN 4.5010 7.0000 0.0 0.0 1
C_29461 RECT_OPEN 4.5010 7.0000 0.0 0.0 1
C_29462 RECT_OPEN 3.4740 7.0000 0.0 0.0 1
C_29463 RECT_OPEN 3.4740 7.0000 0.0 0.0 1
C_29464 RECT_OPEN 2.9110 4.0000 0.0 0.0 1
C_29465 RECT_OPEN 2.9110 4.0000 0.0 0.0 1
C_29466 RECT_OPEN 3.0450 4.0000 0.0 0.0 1
C_29467 RECT_OPEN 3.0450 4.0000 0.0 0.0 1
C_29468 RECT_OPEN 3.1790 3.5120 0.0 0.0 1
C_29469 RECT_OPEN 3.1790 3.5120 0.0 0.0 1
C_29470 RECT_OPEN 3.0140 3.1350 0.0 0.0 1
C_29471 RECT_OPEN 3.0140 3.1350 0.0 0.0 1
C_29472 RECT_OPEN 2.3880 3.2260 0.0 0.0 1
C_29473 RECT_OPEN 2.3880 3.2260 0.0 0.0 1
C_29474 RECT_OPEN 2.6620 2.7700 0.0 0.0 1
C_29475 RECT_OPEN 2.6620 2.7700 0.0 0.0 1
C_29476 RECT_OPEN 2.3370 2.8340 0.0 0.0 1
C_29477 RECT_OPEN 2.3370 2.8340 0.0 0.0 1
C_29478 RECT_CLOSED 2.0000 2.0000 0.0 0.0 1
C_29479 RECT_CLOSED 2.0000 2.0000 0.0 0.0 1
C_29480 RECT_CLOSED 2.0000 2.0000 0.0 0.0 1
C_29481 RECT_CLOSED 2.0000 2.0000 0.0 0.0 1
C_29482 RECT_OPEN 2.3230 2.3880 0.0 0.0 1
C_29483 RECT_OPEN 2.3230 2.3880 0.0 0.0 1
C_29484 RECT_OPEN 2.4750 1.9690 0.0 0.0 1
C_29485 RECT_OPEN 2.4750 1.9690 0.0 0.0 1
C_29486 RECT_OPEN 2.3460 2.0550 0.0 0.0 1
C_29487 RECT_OPEN 2.3460 2.0550 0.0 0.0 1
C_29488 RECT_CLOSED 2.0000 2.0000 0.0 0.0 1
C_29489 RECT_CLOSED 2.0000 2.0000 0.0 0.0 1
C_29490 RECT_CLOSED 2.0000 2.0000 0.0 0.0 1
C_29491 RECT_CLOSED 2.0000 2.0000 0.0 0.0 1
C_29492 RECT_CLOSED 2.0000 2.0000 0.0 0.0 1
C_29493 RECT_CLOSED 2.0000 2.0000 0.0 0.0 1
C_29494 RECT_CLOSED 2.0000 2.0000 0.0 0.0 1
C_29495 RECT_CLOSED 2.0000 2.0000 0.0 0.0 1
C_29496 RECT_CLOSED 2.0000 2.0000 0.0 0.0 1
C_29497 RECT_CLOSED 2.0000 2.0000 0.0 0.0 1
C_29498 RECT_CLOSED 2.0000 2.0000 0.0 0.0 1
C_29499 RECT_CLOSED 2.0000 2.0000 0.0 0.0 1
C_29500 RECT_CLOSED 2.0000 2.0000 0.0 0.0 1
C_29501 RECT_CLOSED 2.0000 2.0000 0.0 0.0 1
C_29503 RECT_OPEN 2.1240 2.5170 0.0 0.0 1
C_29504 RECT_OPEN 2.1240 2.5170 0.0 0.0 1
C_29505 RECT_OPEN 2.0390 2.3700 0.0 0.0 1
C_29506 RECT_OPEN 2.0390 2.3700 0.0 0.0 1
C_29507 RECT_OPEN 1.9720 2.0100 0.0 0.0 1
C_29508 RECT_OPEN 1.9720 2.0100 0.0 0.0 1
C_29509 RECT_OPEN 2.1740 1.0000 0.0 0.0 1
C_29510 RECT_OPEN 2.1740 1.0000 0.0 0.0 1
C_29511 RECT_OPEN 2.1740 2.0730 0.0 0.0 1
C_29512 RECT_OPEN 2.1740 2.0730 0.0 0.0 1
C_29513 RECT_OPEN 1.9700 2.1550 0.0 0.0 1
C_29514 RECT_OPEN 1.9700 2.1550 0.0 0.0 1
C_29515 RECT_OPEN 2.2070 2.0770 0.0 0.0 1
C_29516 RECT_OPEN 2.2070 2.0770 0.0 0.0 1
C_29521 RECT_OPEN 2.2080 2.0830 0.0 0.0 1
C_29522 RECT_OPEN 2.2080 2.0830 0.0 0.0 1
C_29523 RECT_CLOSED 2.2580 5.5000 0.0 0.0 1
C_29524 RECT_CLOSED 2.2930 5.5000 0.0 0.0 1
C_29525 RECT_CLOSED 2.3180 5.5000 0.0 0.0 1
C_29526 RECT_CLOSED 2.0000 2.0000 0.0 0.0 1
C_29527 RECT_CLOSED 2.0000 2.0000 0.0 0.0 1
C_29528 RECT_CLOSED 2.0000 2.0000 0.0 0.0 1
C_29529 RECT_CLOSED 2.0000 2.0000 0.0 0.0 1
C_29530 RECT_CLOSED 2.0000 2.0000 0.0 0.0 1
C_29531 RECT_CLOSED 2.0000 2.0000 0.0 0.0 1
C_29532 RECT_CLOSED 1.8110 5.5000 0.0 0.0 1
C_29533 RECT_CLOSED 1.5390 5.5000 0.0 0.0 1
C_29534 RECT_CLOSED 2.2260 5.5000 0.0 0.0 1
C_29535 RECT_CLOSED 2.1040 5.5000 0.0 0.0 1
C_29536 RECT_CLOSED 2.0000 2.0000 0.0 0.0 1
C_29537 RECT_CLOSED 2.0000 2.0000 0.0 0.0 1
C_29538 RECT_CLOSED 2.0000 2.0000 0.0 0.0 1
C_29539 RECT_CLOSED 2.0000 2.0000 0.0 0.0 1
C_29540 RECT_CLOSED 2.0000 2.0000 0.0 0.0 1
C_29541 RECT_CLOSED 2.0000 2.0000 0.0 0.0 1
C_29542 RECT_CLOSED 2.0000 2.0000 0.0 0.0 1
C_29543 RECT_CLOSED 2.0000 2.0000 0.0 0.0 1
C_29544 RECT_CLOSED 2.0000 2.0000 0.0 0.0 1
C_29545 RECT_CLOSED 2.0000 2.0000 0.0 0.0 1
C_29546 RECT_CLOSED 2.0000 2.0000 0.0 0.0 1
C_29547 RECT_CLOSED 2.0000 2.0000 0.0 0.0 1
C_29548 RECT_CLOSED 2.0000 2.0000 0.0 0.0 1
C_29549 RECT_CLOSED 2.0000 2.0000 0.0 0.0 1
C_29550 RECT_CLOSED 2.0000 2.0000 0.0 0.0 1
C_29551 RECT_CLOSED 2.0000 2.0000 0.0 0.0 1
C_29557 RECT_CLOSED 3.4650 13.0000 0.0 0.0 1
C_29558 RECT_CLOSED 2.5640 6.0000 0.0 0.0 1
C_29559 RECT_CLOSED 3.7710 22.0000 0.0 0.0 1
C_29560 RECT_OPEN 2.1090 4.5000 0.0 0.0 1
C_29561 RECT_OPEN 3.0580 5.7820 0.0 0.0 1
C_29562 RECT_OPEN 2.5460 5.0000 0.0 0.0 1
C_29563 RECT_OPEN 2.7350 4.4560 0.0 0.0 1
C_29564 RECT_OPEN 1.9970 2.2100 0.0 0.0 1
C_29565 RECT_OPEN 2.1290 3.5000 0.0 0.0 1
C_29566 RECT_OPEN 1.3860 2.1430 0.0 0.0 1
C_29567 RECT_OPEN 1.5150 2.0030 0.0 0.0 1
C_29568 RECT_OPEN 1.5360 2.1040 0.0 0.0 1
C_29569 RECT_OPEN 1.5860 2.6750 0.0 0.0 1
C_29570 RECT_CLOSED 2.1020 2.7000 0.0 0.0 1
C_29571 RECT_CLOSED 2.7410 2.7000 0.0 0.0 1
C_29572 RECT_CLOSED 2.5870 5.5000 0.0 0.0 1
C_29573 RECT_CLOSED 2.3540 3.0000 0.0 0.0 1
C_29574 RECT_OPEN 2.0770 3.5380 0.0 0.0 1
C_29575 RECT_OPEN 2.2290 3.2140 0.0 0.0 1
C_29576 RECT_OPEN 3.1270 3.4000 0.0 0.0 1
C_29577 RECT_OPEN 3.0950 3.4000 0.0 0.0 1
C_29578 RECT_OPEN 2.3200 3.2000 0.0 0.0 1
C_29579 RECT_OPEN 3.0530 3.5000 0.0 0.0 1
C_29580 RECT_OPEN 2.2460 3.2000 0.0 0.0 1
C_29581 RECT_OPEN 2.7230 4.7460 0.0 0.0 1
C_29582 RECT_OPEN 2.6950 5.9300 0.0 0.0 1
C_29583 RECT_OPEN 2.5150 4.9600 0.0 0.0 1
C_29584 RECT_OPEN 2.4750 3.2140 0.0 0.0 1
C_29585 RECT_OPEN 2.3780 6.9100 0.0 0.0 1
C_29586 RECT_OPEN 1.9980 5.3600 0.0 0.0 1
C_29587 RECT_OPEN 2.3330 6.0000 0.0 0.0 1
C_29588 RECT_OPEN 2.5600 4.3020 0.0 0.0 1
C_29590 RECT_CLOSED 2.2960 4.0000 0.0 0.0 1
C_29591 RECT_CLOSED 2.0290 4.0000 0.0 0.0 1
C_29592 RECT_OPEN 2.2770 3.9250 0.0 0.0 1
C_29593 RECT_OPEN 2.2370 3.7420 0.0 0.0 1
C_29594 RECT_CLOSED 2.2430 4.0000 0.0 0.0 1
C_29595 RECT_CLOSED 2.4080 4.0000 0.0 0.0 1
C_29596 RECT_OPEN 2.4820 2.7370 0.0 0.0 1
C_29597 RECT_OPEN 2.3010 2.7370 0.0 0.0 1
C_29598 RECT_OPEN 2.3830 2.0530 0.0 0.0 1
C_29599 RECT_OPEN 2.3830 2.8940 0.0 0.0 1
C_29600 RECT_CLOSED 2.5570 2.5000 0.0 0.0 1
C_29601 RECT_CLOSED 2.3750 2.5000 0.0 0.0 1
C_29602 RECT_OPEN 2.4600 4.2000 0.0 0.0 1
C_29603 RECT_OPEN 2.3290 3.6880 0.0 0.0 1
C_29604 RECT_OPEN 2.5240 2.5000 0.0 0.0 1
C_29605 RECT_OPEN 1.6060 3.6040 0.0 0.0 1
C_29606 RECT_OPEN 1.5710 3.5480 0.0 0.0 1
C_29607 RECT_OPEN 1.3620 2.7420 0.0 0.0 1
C_29608 RECT_OPEN 1.4400 2.8240 0.0 0.0 1
C_29609 RECT_OPEN 1.2030 3.0000 0.0 0.0 1
C_29610 RECT_OPEN 2.5050 4.5000 0.0 0.0 1
C_29611 RECT_OPEN 2.4350 4.8320 0.0 0.0 1
C_29612 RECT_CLOSED 2.0930 4.8000 0.0 0.0 1
C_29613 RECT_CLOSED 2.0820 4.8000 0.0 0.0 1
C_29614 RECT_CLOSED 1.8980 3.5000 0.0 0.0 1
C_29615 RECT_CLOSED 1.8880 3.5000 0.0 0.0 1
C_29617 RECT_OPEN 1.7680 4.0000 0.0 0.0 1
C_29618 RECT_CLOSED 2.1520 2.6000 0.0 0.0 1
C_29619 RECT_CLOSED 1.7890 3.5000 0.0 0.0 1
C_29620 RECT_CLOSED 1.9500 3.0000 0.0 0.0 1
C_29621 RECT_CLOSED 2.2710 3.0000 0.0 0.0 1
C_29622 RECT_CLOSED 2.3030 3.0000 0.0 0.0 1
C_29623 RECT_CLOSED 1.8200 4.0000 0.0 0.0 1
C_29624 RECT_CLOSED 1.6600 4.0000 0.0 0.0 1
C_29625 RECT_OPEN 2.2720 3.3490 0.0 0.0 1
C_29626 RECT_OPEN 2.5090 2.1270 0.0 0.0 1
C_29627 RECT_OPEN 1.9360 3.3740 0.0 0.0 1
C_29628 RECT_OPEN 1.9190 6.7740 0.0 0.0 1
C_29629 RECT_OPEN 2.1080 4.8530 0.0 0.0 1
C_29630 RECT_OPEN 1.9970 5.0900 0.0 0.0 1
C_29631 RECT_OPEN 2.0470 2.7030 0.0 0.0 1
C_29632 RECT_OPEN 1.7550 3.4990 0.0 0.0 1
C_29634 RECT_OPEN 1.5080 3.0440 0.0 0.0 1
C_29635 RECT_OPEN 1.5530 3.0970 0.0 0.0 1
C_29636 RECT_OPEN 1.5120 2.9650 0.0 0.0 1
C_29637 RECT_CLOSED 1.5280 3.0000 0.0 0.0 1
C_29638 RECT_CLOSED 1.4800 3.0000 0.0 0.0 1
C_29639 RECT_OPEN 1.2660 3.2690 0.0 0.0 1
C_29640 RECT_OPEN 1.2340 3.1470 0.0 0.0 1
C_29641 RECT_OPEN 1.5290 4.0000 0.0 0.0 1
C_29642 RECT_OPEN 1.5700 4.0000 0.0 0.0 1
C_29643 RECT_OPEN 1.5460 4.0000 0.0 0.0 1
C_29644 RECT_OPEN 1.7040 4.0000 0.0 0.0 1
C_29645 RECT_OPEN 1.8610 5.5000 0.0 0.0 1
C_29647 RECT_OPEN 2.0590 2.3640 0.0 0.0 1
C_29648 RECT_OPEN 1.8990 2.5040 0.0 0.0 1
C_29649 RECT_CLOSED 2.2560 5.5000 0.0 0.0 1
C_29655 RECT_OPEN 1.2830 3.1850 0.0 0.0 1
C_29656 RECT_OPEN 1.3210 3.1850 0.0 0.0 1
C_29657 RECT_OPEN 1.4320 3.1660 0.0 0.0 1
C_29658 RECT_OPEN 1.5230 3.3410 0.0 0.0 1
C_29659 RECT_CLOSED 2.4030 3.0000 0.0 0.0 1
C_29660 RECT_CLOSED 2.2750 3.0000 0.0 0.0 1
C_29661 RECT_OPEN 2.1490 3.0000 0.0 0.0 1
C_29662 RECT_CLOSED 1.6960 3.0000 0.0 0.0 1
C_29663 RECT_CLOSED 1.6210 3.0000 0.0 0.0 1
C_29664 RECT_CLOSED 1.6690 3.0000 0.0 0.0 1
C_29669 RECT_CLOSED 1.7430 3.0000 0.0 0.0 1
C_29670 RECT_CLOSED 1.6500 3.0000 0.0 0.0 1
C_29671 RECT_CLOSED 1.8350 4.0000 0.0 0.0 1
C_29672 RECT_CLOSED 1.9650 4.0000 0.0 0.0 1
C_29673 RECT_OPEN 1.7550 3.0000 0.0 0.0 1
C_29674 RECT_OPEN 1.6670 3.0000 0.0 0.0 1
C_29675 RECT_OPEN 1.9800 3.0000 0.0 0.0 1
C_29676 RECT_CLOSED 1.9860 3.5000 0.0 0.0 1
C_29682 RECT_OPEN 2.0420 3.0000 0.0 0.0 1
C_29683 RECT_OPEN 1.9520 3.0000 0.0 0.0 1
C_29684 RECT_OPEN 2.0280 3.0000 0.0 0.0 1
C_29685 RECT_OPEN 1.6950 1.8000 0.0 0.0 1
C_29686 RECT_OPEN 1.7530 1.8000 0.0 0.0 1
C_29687 RECT_OPEN 1.8470 1.8000 0.0 0.0 1
C_29688 RECT_OPEN 1.9090 1.8000 0.0 0.0 1
C_29689 RECT_OPEN 1.9860 1.8000 0.0 0.0 1
C_29690 RECT_OPEN 2.0110 1.8000 0.0 0.0 1
C_29691 RECT_OPEN 2.0300 1.8000 0.0 0.0 1
C_29693 RECT_OPEN 1.8670 3.0000 0.0 0.0 1
C_29694 RECT_OPEN 2.0800 1.8000 0.0 0.0 1
C_29697 RECT_CLOSED 2.0000 3.0000 0.0 0.0 1
C_29698 RECT_OPEN 1.8640 3.0000 0.0 0.0 1
C_29700 RECT_CLOSED 2.0000 2.0000 0.0 0.0 1
C_29701 RECT_CLOSED 2.0000 2.0000 0.0 0.0 1
C_29707 RECT_OPEN 1.6480 3.0000 0.0 0.0 1
C_29708 RECT_OPEN 2.8570 3.0000 0.0 0.0 1
C_29711 RECT_CLOSED 1.6150 3.0000 0.0 0.0 1
C_29712 RECT_CLOSED 1.5890 3.0000 0.0 0.0 1
C_29713 RECT_OPEN 1.5490 3.0000 0.0 0.0 1
C_29714 RECT_OPEN 1.4080 3.0000 0.0 0.0 1
C_29716 RECT_CLOSED 2.3130 5.0000 0.0 0.0 1
C_29717 RECT_OPEN 2.2600 5.0000 0.0 0.0 1
C_29722 RECT_OPEN 1.5000 3.0000 0.0 0.0 1
C_29723 RECT_OPEN 1.2940 3.0000 0.0 0.0 1
C_29724 RECT_OPEN 1.0380 3.0000 0.0 0.0 1
C_29725 RECT_OPEN 0.7410 4.9170 0.0 0.0 1
C_29726 RECT_OPEN 0.9540 3.0000 0.0 0.0 1
C_29727 RECT_OPEN 1.0610 3.0000 0.0 0.0 1
C_29748 RECT_OPEN 2.1140 5.4440 0.0 0.0 1
C_29749 RECT_OPEN 2.4210 5.4440 0.0 0.0 1
C_29750 RECT_OPEN 2.8730 5.5240 0.0 0.0 1
C_29751 RECT_OPEN 2.6350 5.4600 0.0 0.0 1
C_29752 RECT_CLOSED 2.0000 3.0000 0.0 0.0 1
C_29753 RECT_OPEN 2.4810 5.0770 0.0 0.0 1
C_29754 RECT_OPEN 2.2080 3.2880 0.0 0.0 1
C_29755 RECT_OPEN 2.2090 3.2880 0.0 0.0 1
C_29756 RECT_OPEN 2.3050 3.4130 0.0 0.0 1
C_29757 RECT_OPEN 2.0790 3.4560 0.0 0.0 1
C_29758 RECT_OPEN 1.9760 3.4090 0.0 0.0 1
C_29759 RECT_OPEN 1.9660 3.5000 0.0 0.0 1
C_29760 RECT_CLOSED 1.9520 4.0000 0.0 0.0 1
C_29761 RECT_CLOSED 2.0000 3.0000 0.0 0.0 1
C_29762 RECT_CLOSED 1.9980 4.0000 0.0 0.0 1
C_29763 RECT_CLOSED 2.0000 3.0000 0.0 0.0 1
C_29764 RECT_CLOSED 2.0000 3.0000 0.0 0.0 1
C_29765 RECT_CLOSED 2.0000 3.0000 0.0 0.0 1
C_29766 RECT_CLOSED 2.0000 3.0000 0.0 0.0 1
C_29767 RECT_CLOSED 2.0000 3.0000 0.0 0.0 1
C_29768 RECT_CLOSED 2.0000 3.0000 0.0 0.0 1
C_30000 RECT_CLOSED 1.5000 1.5000 0.0 0.0 1
C_30039 RECT_OPEN 2.2010 14.0000 0.0 0.0 1
C_30040 RECT_OPEN 2.2230 14.0000 0.0 0.0 1
C_30041 RECT_OPEN 2.1790 14.0000 0.0 0.0 1
C_30042 RECT_OPEN 2.1530 14.0000 0.0 0.0 1
C_30044 RECT_OPEN 2.2110 14.0000 0.0 0.0 1
C_30045 RECT_OPEN 2.2800 14.0000 0.0 0.0 1
C_30046 RECT_OPEN 2.2940 14.0000 0.0 0.0 1
C_30050 RECT_OPEN 2.3620 14.0000 0.0 0.0 1
C_30051 RECT_OPEN 2.4750 14.0000 0.0 0.0 1
C_30052 RECT_OPEN 2.4420 14.0000 0.0 0.0 1
C_30053 RECT_OPEN 2.3120 14.0000 0.0 0.0 1
C_30054 RECT_OPEN 2.1620 14.0000 0.0 0.0 1
C_30055 RECT_OPEN 2.1800 14.0000 0.0 0.0 1
C_30056 RECT_OPEN 2.1650 14.0000 0.0 0.0 1
C_30058 RECT_OPEN 2.3540 24.0000 0.0 0.0 1
C_30059 RECT_OPEN 2.4550 24.0000 0.0 0.0 1
C_30060 RECT_OPEN 2.4920 24.0000 0.0 0.0 1
C_30061 RECT_OPEN 2.2000 14.0000 0.0 0.0 1
C_30062 RECT_OPEN 3.0360 14.0000 0.0 0.0 1
C_30063 RECT_CLOSED 3.0640 21.6000 0.0 0.0 1
C_30065 RECT_OPEN 3.2920 24.0000 0.0 0.0 1
C_30068 RECT_OPEN 2.3520 24.0000 0.0 0.0 1
C_30069 RECT_OPEN 2.3670 24.0000 0.0 0.0 1
C_30070 RECT_OPEN 2.5270 24.0000 0.0 0.0 1
C_30071 RECT_OPEN 2.4720 24.0000 0.0 0.0 1
C_30074 RECT_OPEN 2.4140 24.0000 0.0 0.0 1
C_30075 RECT_OPEN 2.4690 24.0000 0.0 0.0 1
C_30076 RECT_OPEN 2.5160 24.0000 0.0 0.0 1
C_30077 RECT_OPEN 2.1320 2.1790 0.0 0.0 1
C_30078 RECT_OPEN 2.2510 1.5000 0.0 0.0 1
C_30079 RECT_OPEN 2.1940 1.5000 0.0 0.0 1
C_30085 RECT_OPEN 2.0480 1.5000 0.0 0.0 1
C_30086 RECT_OPEN 1.9020 1.5000 0.0 0.0 1
C_30087 RECT_OPEN 1.9450 1.5000 0.0 0.0 1
C_30088 RECT_OPEN 1.7970 1.5000 0.0 0.0 1
C_30089 RECT_OPEN 1.8550 1.5000 0.0 0.0 1
C_30090 RECT_CLOSED 1.8220 1.2000 0.0 0.0 1
C_30091 RECT_OPEN 1.8050 1.2000 0.0 0.0 1
C_30092 RECT_OPEN 1.6840 1.2000 0.0 0.0 1
C_30093 RECT_OPEN 1.5870 1.2000 0.0 0.0 1
C_30094 RECT_OPEN 1.6040 1.2000 0.0 0.0 1
C_30095 RECT_CLOSED 1.9180 3.0000 0.0 0.0 1
C_30096 RECT_CLOSED 1.9590 1.2000 0.0 0.0 1
C_30097 RECT_CLOSED 1.9420 2.1740 0.0 0.0 1
C_30099 RECT_CLOSED 1.8890 1.2000 0.0 0.0 1
C_30100 RECT_CLOSED 1.7260 1.2000 0.0 0.0 1
C_30101 RECT_CLOSED 1.5990 1.2000 0.0 0.0 1
C_30102 RECT_CLOSED 1.7330 1.2000 0.0 0.0 1
C_30103 RECT_OPEN 1.5770 1.2000 0.0 0.0 1
C_30104 RECT_CLOSED 1.8460 1.2000 0.0 0.0 1
C_30105 RECT_CLOSED 1.7330 1.2000 0.0 0.0 1
C_30106 RECT_CLOSED 1.7840 1.2000 0.0 0.0 1
C_30107 RECT_CLOSED 1.7720 1.2000 0.0 0.0 1
C_30108 RECT_CLOSED 1.7210 1.2000 0.0 0.0 1
C_30143 RECT_OPEN 3.6510 7.5000 0.0 0.0 1
C_30144 RECT_CLOSED 3.7990 7.5000 0.0 0.0 1
C_30145 RECT_CLOSED 3.8640 8.0000 0.0 0.0 1
C_30146 RECT_OPEN 4.8310 7.5000 0.0 0.0 1
C_30149 RECT_CLOSED 4.2810 7.5000 0.0 0.0 1
C_30150 RECT_OPEN 4.3860 7.5000 0.0 0.0 1
C_30151 RECT_OPEN 3.3220 7.5000 0.0 0.0 1
C_30152 RECT_OPEN 4.5380 7.5000 0.0 0.0 1
C_30156 RECT_OPEN 3.3900 7.5000 0.0 0.0 1
C_30157 RECT_OPEN 4.1820 7.5000 0.0 0.0 1
C_30158 RECT_OPEN 4.0770 7.5000 0.0 0.0 1
C_30159 RECT_OPEN 4.2460 7.5000 0.0 0.0 1
C_30160 RECT_OPEN 4.1520 7.5000 0.0 0.0 1
C_30161 RECT_OPEN 3.1270 7.5000 0.0 0.0 1
C_30162 RECT_CLOSED 4.0300 7.5000 0.0 0.0 1
C_30163 RECT_CLOSED 3.9600 7.5000 0.0 0.0 1
C_30164 RECT_OPEN 4.4620 7.5000 0.0 0.0 1
C_30165 RECT_OPEN 3.1450 7.5000 0.0 0.0 1
C_30166 RECT_OPEN 3.4120 7.5000 0.0 0.0 1
C_30167 RECT_OPEN 3.2010 7.5000 0.0 0.0 1
C_30168 RECT_OPEN 3.3650 7.5000 0.0 0.0 1
C_30169 RECT_OPEN 4.2540 6.5000 0.0 0.0 1
C_30170 RECT_OPEN 4.8040 6.5000 0.0 0.0 1
C_30171 RECT_OPEN 4.0550 6.5000 0.0 0.0 1
C_30172 RECT_OPEN 5.0370 6.5000 0.0 0.0 1
C_30173 RECT_OPEN 5.7590 6.5000 0.0 0.0 1
C_30174 RECT_CLOSED 5.9790 6.5000 0.0 0.0 1
C_30175 RECT_OPEN 3.1020 6.5000 0.0 0.0 1
C_30176 RECT_OPEN 3.2820 6.5000 0.0 0.0 1
C_30177 RECT_OPEN 3.6560 6.5000 0.0 0.0 1
C_30178 RECT_OPEN 3.6690 6.5000 0.0 0.0 1
C_30179 RECT_OPEN 2.8220 6.5000 0.0 0.0 1
C_30180 RECT_OPEN 3.3190 6.5000 0.0 0.0 1
C_30181 RECT_OPEN 4.0870 6.5000 0.0 0.0 1
C_30182 RECT_OPEN 4.2310 6.5000 0.0 0.0 1
C_30183 RECT_OPEN 2.4290 7.5000 0.0 0.0 1
C_30184 RECT_OPEN 3.4460 7.5000 0.0 0.0 1
C_30185 RECT_OPEN 1.7370 7.5000 0.0 0.0 1
C_30186 RECT_OPEN 3.4520 7.5000 0.0 0.0 1
C_30187 RECT_OPEN 1.7500 7.5000 0.0 0.0 1
C_30188 RECT_OPEN 1.8710 7.5000 0.0 0.0 1
C_30189 RECT_OPEN 1.9190 7.5000 0.0 0.0 1
C_30190 RECT_OPEN 1.7470 7.5000 0.0 0.0 1
C_30191 RECT_OPEN 2.6550 7.5000 0.0 0.0 1
C_30192 RECT_OPEN 2.5860 7.5000 0.0 0.0 1
C_30193 RECT_OPEN 2.3290 7.5000 0.0 0.0 1
C_30194 RECT_OPEN 2.3000 7.5000 0.0 0.0 1
C_30195 RECT_OPEN 2.4620 7.5000 0.0 0.0 1
C_30196 RECT_OPEN 2.8110 7.5000 0.0 0.0 1
C_30197 RECT_OPEN 2.7330 7.5000 0.0 0.0 1
C_30198 RECT_OPEN 2.9190 7.5000 0.0 0.0 1
C_30199 RECT_OPEN 6.0130 7.5000 0.0 0.0 1
C_30200 RECT_OPEN 5.7470 7.5000 0.0 0.0 1
C_30201 RECT_OPEN 3.0110 6.5000 0.0 0.0 1
C_30202 RECT_OPEN 3.9680 6.5000 0.0 0.0 1
C_30203 RECT_OPEN 2.3550 6.5000 0.0 0.0 1
C_30204 RECT_OPEN 2.4450 6.5000 0.0 0.0 1
C_30205 RECT_OPEN 2.1800 6.5000 0.0 0.0 1
C_30206 RECT_OPEN 1.8520 6.5000 0.0 0.0 1
C_30207 RECT_OPEN 1.9480 6.5000 0.0 0.0 1
C_30208 RECT_CLOSED 2.6590 6.5000 0.0 0.0 1
C_30209 RECT_OPEN 3.0980 6.5000 0.0 0.0 1
C_30210 RECT_OPEN 2.5020 6.5000 0.0 0.0 1
C_30211 RECT_OPEN 2.5010 6.5000 0.0 0.0 1
C_30212 RECT_OPEN 2.5330 6.5000 0.0 0.0 1
C_30213 RECT_OPEN 2.7640 6.5000 0.0 0.0 1
C_30214 RECT_OPEN 2.8690 6.5000 0.0 0.0 1
C_30215 RECT_OPEN 2.7280 6.5000 0.0 0.0 1
C_30216 RECT_OPEN 3.5850 6.5000 0.0 0.0 1
C_30217 RECT_OPEN 2.5350 6.5000 0.0 0.0 1
C_30218 RECT_OPEN 1.4970 2.0050 0.0 0.0 1
C_30219 RECT_OPEN 1.5340 2.0080 0.0 0.0 1
C_30220 RECT_OPEN 1.8610 6.5000 0.0 0.0 1
C_30221 RECT_OPEN 1.7770 6.5000 0.0 0.0 1
C_30222 RECT_OPEN 2.9650 6.5000 0.0 0.0 1
C_30223 RECT_CLOSED 3.1310 6.5000 0.0 0.0 1
C_30224 RECT_OPEN 3.2940 6.5000 0.0 0.0 1
C_30225 RECT_OPEN 3.2140 6.5000 0.0 0.0 1
C_30226 RECT_OPEN 2.4420 6.5000 0.0 0.0 1
C_30227 RECT_OPEN 3.3730 6.5000 0.0 0.0 1
C_30228 RECT_OPEN 3.4250 6.5000 0.0 0.0 1
C_30229 RECT_OPEN 3.3960 6.5000 0.0 0.0 1
C_30230 RECT_OPEN 2.2220 6.5000 0.0 0.0 1
C_30231 RECT_OPEN 2.2700 6.5000 0.0 0.0 1
C_30232 RECT_OPEN 2.3820 6.5000 0.0 0.0 1
C_30233 RECT_OPEN 2.1370 6.5000 0.0 0.0 1
C_30234 RECT_OPEN 2.9280 6.5000 0.0 0.0 1
C_30235 RECT_OPEN 2.0480 6.5000 0.0 0.0 1
C_30236 RECT_OPEN 3.0830 6.5000 0.0 0.0 1
C_30237 RECT_OPEN 3.6230 6.5000 0.0 0.0 1
C_30238 RECT_CLOSED 4.8650 6.5000 0.0 0.0 1
C_30239 RECT_OPEN 2.8360 6.5000 0.0 0.0 1
C_30240 RECT_OPEN 2.4630 2.0000 0.0 0.0 1
C_30241 RECT_OPEN 2.5320 2.0030 0.0 0.0 1
C_30242 RECT_CLOSED 2.5270 6.5000 0.0 0.0 1
C_30243 RECT_OPEN 2.3850 5.0000 0.0 0.0 1
C_30244 RECT_CLOSED 2.5820 5.0000 0.0 0.0 1
C_30245 RECT_OPEN 3.6500 3.0000 0.0 0.0 1
C_30246 RECT_OPEN 3.2770 3.1480 0.0 0.0 1
C_30247 RECT_OPEN 2.3550 2.0030 0.0 0.0 1
C_30248 RECT_OPEN 2.2160 2.0020 0.0 0.0 1
C_30249 RECT_CLOSED 2.2680 2.0000 0.0 0.0 1
C_30250 RECT_OPEN 2.4300 4.0000 0.0 0.0 1
C_30251 RECT_CLOSED 2.4440 4.0000 0.0 0.0 1
C_30252 RECT_OPEN 2.2000 2.0020 0.0 0.0 1
C_30253 RECT_OPEN 2.3920 2.0000 0.0 0.0 1
C_30254 RECT_OPEN 2.3500 1.9900 0.0 0.0 1
C_30255 RECT_OPEN 2.3620 1.9980 0.0 0.0 1
C_30256 RECT_CLOSED 2.0580 1.9980 0.0 0.0 1
C_30257 RECT_CLOSED 2.3400 4.0000 0.0 0.0 1
C_30258 RECT_OPEN 2.3720 4.0000 0.0 0.0 1
C_30259 RECT_OPEN 2.1030 2.0010 0.0 0.0 1
C_30260 RECT_OPEN 2.1830 2.0000 0.0 0.0 1
C_30261 RECT_OPEN 2.1220 2.1140 0.0 0.0 1
C_30262 RECT_OPEN 1.6530 1.9950 0.0 0.0 1
C_30263 RECT_CLOSED 2.5000 2.7000 0.0 0.0 1
C_30264 RECT_OPEN 2.4500 2.7000 0.0 0.0 1
C_30265 RECT_OPEN 2.2900 2.0700 0.0 0.0 1
C_30266 RECT_OPEN 1.4470 2.7000 0.0 0.0 1
C_30267 RECT_CLOSED 1.4570 2.7000 0.0 0.0 1
C_30268 RECT_OPEN 1.7750 1.9970 0.0 0.0 1
C_30269 RECT_OPEN 1.7340 1.9990 0.0 0.0 1
C_30270 RECT_OPEN 1.7760 1.9930 0.0 0.0 1
C_30271 RECT_OPEN 2.2140 2.0300 0.0 0.0 1
C_30272 RECT_OPEN 2.2640 2.0190 0.0 0.0 1
C_30273 RECT_OPEN 2.2990 2.0070 0.0 0.0 1
C_30274 RECT_OPEN 2.6860 2.0010 0.0 0.0 1
C_30275 RECT_OPEN 2.5000 2.5000 0.0 0.0 1
C_30276 RECT_CLOSED 2.5000 2.5000 0.0 0.0 1
C_30277 RECT_OPEN 1.8830 3.0000 0.0 0.0 1
C_30278 RECT_OPEN 1.5720 3.1310 0.0 0.0 1
C_30279 RECT_OPEN 2.5150 3.1980 0.0 0.0 1
C_30280 RECT_OPEN 2.2550 3.0000 0.0 0.0 1
C_30281 RECT_OPEN 2.2160 3.0710 0.0 0.0 1
C_30282 RECT_OPEN 2.1400 3.9550 0.0 0.0 1
C_30283 RECT_OPEN 3.2920 2.7750 0.0 0.0 1
C_30284 RECT_OPEN 3.3860 2.7930 0.0 0.0 1
C_30285 RECT_OPEN 2.2530 3.2270 0.0 0.0 1
C_30286 RECT_OPEN 1.8450 2.7410 0.0 0.0 1
C_30287 RECT_OPEN 3.3750 3.2190 0.0 0.0 1
C_30288 RECT_OPEN 2.3120 5.0000 0.0 0.0 1
C_30289 RECT_OPEN 3.0280 3.0000 0.0 0.0 1
C_30290 RECT_OPEN 2.1850 3.0000 0.0 0.0 1
C_30291 RECT_CLOSED 2.2270 5.0000 0.0 0.0 1
C_30292 RECT_OPEN 1.7060 3.0240 0.0 0.0 1
C_30293 RECT_OPEN 1.5540 2.5680 0.0 0.0 1
C_30294 RECT_OPEN 1.6780 2.9570 0.0 0.0 1
C_30295 RECT_OPEN 1.7380 2.8370 0.0 0.0 1
C_30296 RECT_OPEN 1.7990 2.3930 0.0 0.0 1
C_30297 RECT_OPEN 1.7870 2.3930 0.0 0.0 1
C_30298 RECT_OPEN 1.7790 2.4840 0.0 0.0 1
C_30299 RECT_OPEN 1.7480 3.2320 0.0 0.0 1
C_30300 RECT_OPEN 1.6470 2.6390 0.0 0.0 1
C_30301 RECT_OPEN 2.1740 2.5030 0.0 0.0 1
C_30302 RECT_OPEN 1.5800 3.0000 0.0 0.0 1
C_30303 RECT_OPEN 2.1070 2.5400 0.0 0.0 1
C_30304 RECT_OPEN 2.0660 3.2470 0.0 0.0 1
C_30305 RECT_OPEN 1.4530 3.0520 0.0 0.0 1
C_30306 RECT_OPEN 1.7700 3.0240 0.0 0.0 1
C_30307 RECT_OPEN 2.3280 3.0000 0.0 0.0 1
C_30308 RECT_OPEN 3.1760 4.0000 0.0 0.0 1
C_30309 RECT_OPEN 1.8640 2.2820 0.0 0.0 1
C_30310 RECT_CLOSED 3.5000 6.0000 0.0 0.0 1
C_30311 RECT_OPEN 1.7160 2.0920 0.0 0.0 1
C_30312 RECT_OPEN 2.5460 2.2350 0.0 0.0 1
C_30313 RECT_OPEN 2.9190 3.5080 0.0 0.0 1
C_30314 RECT_OPEN 2.0800 2.0640 0.0 0.0 1
C_30315 RECT_OPEN 1.9650 2.0790 0.0 0.0 1
C_30316 RECT_OPEN 3.4580 2.5670 0.0 0.0 1
C_30317 RECT_OPEN 1.7510 2.1680 0.0 0.0 1
C_30318 RECT_OPEN 1.6490 1.9080 0.0 0.0 1
C_30319 RECT_OPEN 2.1620 2.2430 0.0 0.0 1
C_30320 RECT_OPEN 1.4470 2.3470 0.0 0.0 1
C_30321 RECT_OPEN 1.5190 2.7000 0.0 0.0 1
C_30322 RECT_OPEN 1.8080 2.2810 0.0 0.0 1
C_30323 RECT_OPEN 2.1560 2.7960 0.0 0.0 1
C_30324 RECT_OPEN 1.8550 2.5560 0.0 0.0 1
C_30325 RECT_CLOSED 3.0000 3.0000 0.0 0.0 1
C_30326 RECT_OPEN 4.2730 5.0000 0.0 0.0 1
C_30327 RECT_CLOSED 2.0000 2.0000 0.0 0.0 1
C_30328 RECT_CLOSED 2.0000 2.0000 0.0 0.0 1
C_30329 RECT_CLOSED 2.0000 2.0000 0.0 0.0 1
C_30330 RECT_OPEN 1.6010 2.0340 0.0 0.0 1
C_30331 RECT_OPEN 1.3750 2.0340 0.0 0.0 1
C_30332 RECT_OPEN 1.3380 1.3800 0.0 0.0 1
C_30333 RECT_OPEN 1.0540 2.0450 0.0 0.0 1
C_30334 RECT_OPEN 2.3130 1.9730 0.0 0.0 1
C_30335 RECT_OPEN 2.2310 1.9550 0.0 0.0 1
C_30336 RECT_OPEN 2.0930 2.1240 0.0 0.0 1
C_30337 RECT_OPEN 3.0680 2.1770 0.0 0.0 1
C_30338 RECT_OPEN 2.3210 2.1010 0.0 0.0 1
C_30339 RECT_OPEN 2.0080 2.6700 0.0 0.0 1
C_30340 RECT_OPEN 3.6250 9.0000 0.0 0.0 1
C_30341 RECT_OPEN 2.2820 9.0000 0.0 0.0 1
C_30342 RECT_OPEN 3.6380 9.0000 0.0 0.0 1
C_30343 RECT_OPEN 2.6120 10.1340 0.0 0.0 1
C_30344 RECT_OPEN 3.1080 8.1390 0.0 0.0 1
C_30345 RECT_OPEN 3.6580 9.0000 0.0 0.0 1
C_30346 RECT_OPEN 2.7730 9.0000 0.0 0.0 1
C_30347 RECT_OPEN 3.8460 9.0000 0.0 0.0 1
C_30348 RECT_OPEN 3.7620 9.0000 0.0 0.0 1
C_30349 RECT_OPEN 2.4830 9.0000 0.0 0.0 1
C_30350 RECT_OPEN 2.8730 8.0000 0.0 0.0 1
C_30351 RECT_OPEN 2.9620 8.0000 0.0 0.0 1
C_30352 RECT_OPEN 3.4330 8.0640 0.0 0.0 1
C_30353 RECT_OPEN 4.6340 8.0000 0.0 0.0 1
C_30354 RECT_OPEN 4.2020 9.1390 0.0 0.0 1
C_30355 RECT_OPEN 4.7840 9.2720 0.0 0.0 1
C_30356 RECT_OPEN 3.6730 9.0000 0.0 0.0 1
C_30357 RECT_CLOSED 2.0000 3.0000 0.0 0.0 1
C_30358 RECT_CLOSED 2.0000 3.0000 0.0 0.0 1
C_30359 RECT_CLOSED 2.0000 3.0000 0.0 0.0 1

[REPORT]
INPUT YES
CONTROLS NO
SUBCATCHMENTS ALL
NODES ALL
LINKS ALL

[COORDINATES]
N_2173075007_c8d38db 273591.088 2107087.384
N_2173075008_0583379 273595.552 2107087.384
N_2173075009_c397ed3 273596.700 2107059.100
N_2173075101_d379d5f 273575.836 2107185.219
N_2173075102_5d8f77e 273578.812 2107186.707
N_2173075103_fef184b 273582.532 2107153.227
N_2173075104_7718eb1 273585.508 2107154.343
N_2173075105_de425c7 273585.880 2107123.839
N_2173075106_54c6b35 273589.972 2107124.211
N_2173075202_ecc75ab 273563.188 2107252.178
N_2173075203_e6318d6 273566.164 2107282.310
N_2173075204_645c7a5 273566.536 2107252.922
N_2173075205_7e2d2df 273569.140 2107280.450
N_2173075206_47d0ea9 273569.884 2107215.723
N_2173075207_ea48a99 273572.860 2107216.095
N_2173076301_eccf1c9 273634.240 2107304.630
N_2173076302_50e6bfa 273634.612 2107301.282
N_2173077301_91e67ea 273704.175 2107319.510
N_2173077302_31cf53a 273705.291 2107317.650
N_2173077303_637beba 273752.163 2107330.297
N_2173077304_05f2b19 273753.279 2107328.065
N_2173077305_8b4ff9c 273781.778 2107382.938
N_2173077306_0d7f3b5 273792.710 2107338.481
N_2173078301_7c666b9 273844.046 2107344.061
N_2173079301_ad7d291 273912.121 2107377.169
N_2173079302_caab2e5 273913.237 2107374.193
N_2173079303_8c5eadc 273933.697 2107387.213
N_2173079304_01a0cb0 273960.100 2107361.800
N_2173079305_f14a5e3 273981.300 2107338.600
N_2173079401_50bca1f 273974.617 2107425.901
N_2173079402_94599fe 273976.100 2107422.600
N_2174055507_ec0244e 274559.956 2105559.783
N_2174055607_30c8260 274594.406 2105640.843
N_2174055608_4c705b5 274594.781 2105686.589
N_2174056505_b208c3d 274652.421 2105577.215
N_2174056508_f723d7a 274664.670 2105588.931
N_2174056601_207dbad 274600.030 2105652.280
N_2174056602_690ab9d 274602.800 2105678.300
N_2174056603_77476e2 274606.779 2105661.466
N_2174056604_0c4fef1 274612.029 2105672.528
N_2174056605_86c1ce5 274621.403 2105662.779
N_2174056606_cbc6b4e 274628.344 2105654.432
N_2174056608_e221e8f 274649.250 2105631.572
N_2174056610_b2cffd0 274661.200 2105619.000
N_2174056613_b7ad54a 274680.710 2105636.228
N_2174056614_b598990 274680.886 2105615.252
N_2174056615_84a3a8c 274682.016 2105605.325
N_2174056617_699a582 274698.788 2105632.813
N_2174057410_34e9311 274798.100 2105469.500
N_2174057411_71b2d38 274799.130 2105491.940
N_2174057504_c0d746e 274799.236 2105582.145
N_2174057505_958ef9f 274799.791 2105515.416
N_2174057506_955de55 274799.791 2105539.223
N_2174057601_52abd7d 274701.339 2105623.979
N_2174057602_33187ef 274702.168 2105656.246
N_2174057603_adab68c 274705.800 2105650.100
N_2174057604_0bc0f8b 274709.203 2105630.402
N_2174057605_59fa55b 274709.545 2105661.885
N_2174057606_141d93d 274709.700 2105652.700
N_2174057607_529b015 274713.723 2105646.879
N_2174057608_7f04778 274716.900 2105642.000
N_2174057610_194680a 274720.700 2105645.000
N_2174057611_4d900a7 274722.300 2105641.500
N_2174057612_25538b8 274728.541 2105677.918
N_2174057613_ab0fbf4 274729.006 2105636.421
N_2174057614_faa298b 274739.841 2105688.052
N_2174057616_91f1d43 274743.554 2105691.265
N_2174057617_8dc65a7 274747.148 2105694.594
N_2174057618_6a58d48 274751.143 2105618.698
N_2174057621_7cd9ad8 274771.978 2105602.777
N_2174058307_e669fd8 274847.300 2105395.700
N_2174058308_985ffcd 274850.000 2105394.900
N_2174058401_74c1078 274840.600 2105464.500
N_2174058402_6f747ed 274843.200 2105451.000
N_2174058403_59717bd 274847.300 2105442.600
N_2174058404_920a299 274847.700 2105438.600
N_2174058405_316f96d 274848.200 2105430.600
N_2174058406_92d5ed0 274848.400 2105420.300
N_2174058407_4535677 274848.800 2105410.100
N_2174058408_59956cf 274849.500 2105400.000
N_2174058409_fafad4c 274862.400 2105442.300
N_2174058411_19d11fe 274884.500 2105447.600
N_2174058412_e2adc4e 274885.600 2105450.800
N_2174058413_b852792 274889.300 2105458.700
N_2174058414_9f300ae 274897.100 2105448.900
N_2174058415_7034bc8 274897.100 2105452.000
N_2174058501_b706378 274800.783 2105554.102
N_2174058502_4df8f84 274802.106 2105573.280
N_2174059401_0eeae2d 274916.700 2105454.800
N_2174059402_926c5ed 274941.100 2105454.400
N_2174059403_7b9ad12 274941.400 2105458.100
N_2174059404_bc9156b 274968.100 2105459.200
N_2174059405_b163762 274990.700 2105455.300
N_2174064701_1c0e380 274474.100 2106785.800
N_2174064803_0cc77b7 274441.900 2106810.200
N_2174064804_6a236bd 274464.100 2106841.500
N_2174064805_a506297 274485.100 2106871.200
N_2174064903_3cac65e 274484.800 2106963.700
N_2174065601_e5a21a8 274597.900 2106688.100
N_2174065701_3e5658c 274534.400 2106740.000
N_2174065702_c6b825c 274559.500 2106766.800
N_2174065703_abd45e5 274581.300 2106794.700
N_2174065801_dbbc674 274516.700 2106843.800
N_2174065802_a276565 274542.400 2106874.900
N_2174065803_4b06d27 274594.300 2106878.600
N_2174065903_6e1dbc9 274530.813 2106927.451
N_2174065904_0e4e5d5 274559.500 2106963.400
N_2174065905_093970c 274562.600 2106903.400
N_2174065906_2009e9f 274572.700 2106985.800
N_2174065907_7aaf0b5 274591.400 2106938.000
N_2174066301_66435e9 274617.000 2106373.000
N_2174066402_bc2985b 274629.000 2106401.000
N_2174066403_5c991f8 274637.000 2106415.000
N_2174066404_f66a918 274645.000 2106431.000
N_2174066405_1c6ea98 274666.000 2106447.000
N_2174066406_00656e4 274681.000 2106474.000
N_2174066504_b99e1a6 274698.000 2106505.000
N_2174066701_c88f0c1 274643.300 2106742.400
N_2174066702_29415f4 274644.711 2106744.864
N_2174066703_b4cc312 274648.900 2106748.700
N_2174066704_a0837f1 274650.580 2106747.023
N_2174066705_76cc05c 274650.675 2106748.295
N_2174066706_924ed1e 274652.695 2106753.380
N_2174066707_e246282 274656.608 2106755.923
N_2174066708_7938c9d 274658.000 2106761.000
N_2174066709_2dd74f8 274663.900 2106724.500
N_2174066710_1dd49d5 274673.000 2106781.000
N_2174066711_2ee2019 274674.000 2106776.000
N_2174066712_e956be6 274677.400 2106721.600
N_2174066713_521aff6 274678.800 2106725.700
N_2174066714_05a7a7c 274679.213 2106726.066
N_2174066715_407a021 274684.000 2106797.000
N_2174066716_51898ea 274686.000 2106796.000
N_2174066717_f4b97c9 274699.007 2106709.047
N_2174066801_31cb562 274603.300 2106824.500
N_2174066802_9ae598a 274627.600 2106852.600
N_2174066803_d115dc2 274650.900 2106884.300
N_2174066804_b2bea22 274658.300 2106829.800
N_2174066806_28c8fd9 274679.500 2106860.400
N_2174066807_9a2b275 274686.200 2106809.200
N_2174066808_9711398 274693.000 2106808.000
N_2174066901_013c529 274608.000 2106960.800
N_2174066902_5cff9ec 274619.300 2106913.300
N_2174066903_f9d3d1b 274637.000 2106936.600
N_2174066904_4fda390 274668.323 2106912.692
N_2174066905_96c9ba0 274687.500 2106900.500
N_2174067501_1867748 274714.000 2106533.000
N_2174067502_54dc082 274731.000 2106562.000
N_2174067503_98e8886 274748.000 2106590.000
N_2174067504_0d8d4db 274752.000 2106598.000
N_2174067602_6bb4a4c 274714.000 2106694.200
N_2174067603_8db63d4 274720.000 2106691.200
N_2174067605_20fb02b 274736.000 2106680.200
N_2174067606_b670cbb 274763.000 2106619.000
N_2174067607_9f0b813 274780.000 2106643.000
N_2174067608_7f9a5cc 274780.000 2106658.000
N_2174067801_c3278a1 274701.481 2106889.721
N_2174067802_fc03544 274703.000 2106814.000
N_2174067803_a19ec81 274711.000 2106831.000
N_2174067804_1f05a9e 274714.000 2106829.000
N_2174067805_7a50d0c 274721.800 2106873.900
N_2174067806_5d06bd2 274725.000 2106847.000
N_2174067807_47d0955 274730.257 2106885.610
N_2174067808_de41e6b 274733.193 2106865.056
N_2174067809_32e0fc7 274738.000 2106864.000
N_2174067901_bb47103 274758.000 2106900.000
N_2174067902_67704fd 274762.000 2106902.000
N_2174067903_05cf310 274773.000 2106918.000
N_2174067904_251d0f6 274775.000 2106928.000
N_2174067905_d787ac3 274790.000 2106942.000
N_2174067906_d629a2d 274792.400 2106952.000
N_2174068901_24863db 274801.000 2106962.000
N_2174068902_c4d2c55 274809.500 2106982.000
N_2174068903_4fb4b15 274816.000 2106989.000
N_2174070305_5d9bb1e 274075.000 2107384.000
N_2174070306_26c17b9 274086.000 2107354.000
N_2174070307_d3dc694 274097.000 2107322.000
N_2174070402_a76b34d 274019.000 2107465.000
N_2174070403_8fa0fd5 274031.000 2107474.000
N_2174070404_1d2870f 274032.000 2107441.000
N_2174070405_422f8bd 274054.000 2107424.000
N_2174070406_6e6ac82 274062.000 2107404.000
N_2174070501_08bb008 274064.000 2107502.000
N_2174070502_facc8b5 274090.733 2107523.850
N_2174071301_a1fc362 274102.000 2107312.000
N_2174071302_7b19441 274178.500 2107311.800
N_2174071401_2f6f127 274103.900 2107476.200
N_2174071402_9e2a70b 274109.000 2107493.700
N_2174071501_55e7eff 274144.000 2107548.000
N_2174071502_dd189bb 274193.000 2107561.000
N_2174071601_6974c5a 274191.400 2107624.700
N_2174072301_462a53d 274224.100 2107379.800
N_2174072401_f7ba51b 274240.287 2107444.240
N_2174072402_dc2f7f2 274266.893 2107479.858
N_2174072403_b5488d5 274287.492 2107499.598
N_2174072404_8ce77f6 274296.900 2107484.100
N_2174072501_fdb070e 274245.000 2107563.000
N_2174072502_1c06d1b 274261.219 2107562.583
N_2174072503_f5fe30b 274287.000 2107560.000
N_2174072504_a64400d 274209.019 2107588.849
N_2174072505_91d9843 274221.100 2107564.700
N_2174073401_4b0a359 274335.100 2107486.700
N_2174073402_4d5a704 274379.700 2107450.000
N_2174073403_e32d774 274381.000 2107477.200
N_2174073501_864fcb0 274302.000 2107559.000
N_2174073502_690368b 274304.228 2107535.646
N_2174073503_8a28fea 274304.657 2107514.618
N_2174073504_bdda676 274343.300 2107507.900
N_2174073505_09b1520 274355.077 2107544.952
N_2174073506_b13d289 274378.800 2107510.300
N_2174073507_6ff82e4 274302.100 2107561.400
N_2174074501_6aa53dd 274403.600 2107554.400
N_2174074502_74d6112 274406.214 2107512.208
N_2174074503_80f6ba9 274406.206 2107533.969
N_2174074504_9f50a88 274410.773 2107525.269
N_2174074505_7b17eae 274418.168 2107530.271
N_2174074506_80711e8 274418.500 2107550.100
N_2174074507_d25c302 274437.961 2107526.139
N_2174074508_c1e7314 274438.200 2107515.100
N_2174074509_f168de7 274439.000 2107543.100
N_2174074510_f8c1891 274460.100 2107521.600
N_2174074511_7782fbf 274467.400 2107535.600
N_2174074512_00707bb 274479.900 2107535.100
N_2174074513_0c26500 274461.900 2107525.000
N_2174075501_09ab23f 274505.974 2107534.895
N_2174075502_c6a0582 274535.208 2107536.002
N_2174075503_a0b769a 274555.400 2107537.300
N_2174075504_9ada7e9 274584.597 2107536.667
N_2174075505_c9d1c39 274557.700 2107519.100
N_2174076501_e528d4f 274626.234 2107532.680
N_2174076502_d2e3457 274645.502 2107531.130
N_2174076503_e468bbd 274667.131 2107527.595
N_2174076504_e017626 274688.247 2107527.822
N_2174076505_bb124c2 274668.600 2107515.200
N_2174077501_29d0148 274715.040 2107527.141
N_2174077502_4b0e57f 274739.335 2107525.779
N_2174077503_03d62d4 274762.949 2107521.238
N_2174077504_3ad7690 274783.156 2107511.247
N_2174077505_b0b8470 274760.300 2107508.700
N_2174078001_dd18539 274823.500 2107012.000
N_2174078002_c315785 274831.000 2107020.000
N_2174078003_0110b37 274838.500 2107044.000
N_2174078004_93b605e 274840.000 2107038.000
N_2174078005_1707453 274851.000 2107060.000
N_2174078006_3a2d6f1 274866.000 2107082.000
N_2174078007_077b319 274878.718 2107092.866
N_2174078008_6ed1690 274880.000 2107091.000
N_2174078009_987a27a 274882.000 2107094.000
N_2174078010_ebd909d 274896.500 2107074.700
N_2174078101_9a2bdc0 274866.947 2107109.986
N_2174078103_810fcf7 274874.800 2107120.000
N_2174078105_1648b80 274881.500 2107138.000
N_2174078107_85cfd98 274882.000 2107100.000
N_2174078108_7788b80 274883.200 2107163.900
N_2174078109_443280f 274884.900 2107188.200
N_2174078110_dfebf00 274896.000 2107122.000
N_2174078111_58acef3 274899.000 2107119.000
N_2174078201_215ac21 274883.100 2107234.200
N_2174078202_b9eac77 274885.100 2107258.600
N_2174078203_1a38703 274888.600 2107214.000
N_2174078204_add6a8f 274891.300 2107285.700
N_2174078205_2d9ce33 274895.900 2107298.200
N_2174078302_61ea8da 274845.000 2107396.000
N_2174078303_570bc4c 274849.000 2107395.000
N_2174078304_95e0b5e 274849.975 2107397.487
N_2174078305_3db7c74 274866.716 2107392.037
N_2174078306_896d62d 274867.000 2107393.500
N_2174078307_5c9d15f 274879.000 2107388.000
N_2174078308_4577d82 274884.000 2107385.000
N_2174078309_17edf1a 274897.000 2107380.000
N_2174078401_25ed1a3 274802.002 2107499.440
N_2174078405_5ac499e 274816.079 2107491.720
N_2174078407_244c6bc 274856.600 2107458.400
N_2174078409_fbfa0b1 274844.007 2107474.918
N_2174078410_1e58c1e 274852.000 2107400.000
N_2174078412_df54b12 274857.200 2107463.300
N_2174078413_906f4ba 274865.689 2107454.712
N_2174079001_2f85de4 274915.500 2107062.100
N_2174079003_f93006e 274918.100 2107064.600
N_2174079005_9d537ae 274927.100 2107054.300
N_2174079007_51e5a2d 274929.000 2107057.000
N_2174079008_0fd7f6a 274955.000 2107042.000
N_2174079010_9c74b09 274983.000 2107023.000
N_2174079101_0bbf66b 274910.000 2107147.000
N_2174079102_aceac56 274915.000 2107148.000
N_2174079103_a357927 274915.000 2107171.000
N_2174079104_2254baa 274917.000 2107164.000
N_2174079105_98ab8fe 274918.000 2107168.000
N_2174079106_5141dd1 274918.800 2107180.000
N_2174079201_57a8017 274918.700 2107206.000
N_2174079202_84ff5ce 274921.700 2107203.000
N_2174079203_c7fb5ab 274926.700 2107212.000
N_2174079204_00f0299 274933.000 2107219.167
N_2174079205_85d07d3 274937.000 2107229.000
N_2174079206_3591fa1 274951.112 2107240.389
N_2174079207_dc5f779 274960.903 2107261.887
N_2174079208_2a5516d 274961.909 2107273.908
N_2174079209_e8a63d7 274965.009 2107272.412
N_2174079210_5adebb6 274973.241 2107291.441
N_2174079301_e9933f0 274900.500 2107381.500
N_2174079302_7a8eb2a 274913.000 2107376.000
N_2174079303_6589684 274917.700 2107326.500
N_2174079304_e10fed8 274921.000 2107376.500
N_2174079305_fa371f3 274924.000 2107373.500
N_2174079306_fcee123 274932.518 2107377.076
N_2174079307_e581276 274933.000 2107371.500
N_2174079308_9cc8a30 274933.000 2107374.000
N_2174079309_228199b 274941.100 2107357.200
N_2174079310_888befc 274950.557 2107368.033
N_2174079311_8c105f4 274961.000 2107360.000
N_2174079313_2799e6c 274978.800 2107398.500
N_2174079314_67018f5 274984.000 2107320.000
N_2174079315_e8fb989 274985.214 2107318.488
N_2174079316_eab4b76 274992.900 2107344.000
N_2174079317_88abc5b 274994.836 2107344.680
N_2174079401_a2156fa 274929.558 2107420.534
N_2174079402_fb992b1 274965.900 2107405.300
N_2174079403_1dd0f17 274989.741 2107415.200
N_2174139701_202041f 274974.800 2113795.298
N_2174139702_e60658c 274993.497 2113771.847
N_2174139801_3d230fb 274955.861 2113818.750
N_2174148401_d3a2233 274894.700 2114451.000
N_2174149301_bd9125d 274955.000 2114391.200
N_2174149302_eb78ff3 274971.400 2114389.300
N_2174149303_969e18c 274985.600 2114384.200
N_2174149401_23afa33 274918.700 2114447.700
N_2174149402_0a0c8af 274934.700 2114448.200
N_2174149403_103f132 274944.600 2114408.200
N_2174149404_a759b18 274947.000 2114432.600
N_2175049801_cf91e2b 275901.924 2104845.611
N_2175049802_32ce649 275905.164 2104864.865
N_2175049803_9659a48 275907.888 2104884.579
N_2175049901_1184059 275903.013 2104995.777
N_2175049902_3dfaed5 275911.623 2104905.914
N_2175049903_3adb438 275914.986 2104925.187
N_2175049904_1bcb5ed 275918.050 2104943.833
N_2175049905_5991261 275921.543 2104962.993
N_2175049906_c27e97d 275923.578 2104983.037
N_2175049907_8c445e9 275976.127 2104993.530
N_2175049908_9892e63 275990.387 2104979.604
N_2175050401_c353dd9 275005.200 2105459.400
N_2175050402_c703f96 275034.100 2105460.500
N_2175050403_c1aadea 275034.300 2105454.400
N_2175050404_2a2f988 275067.579 2105462.227
N_2175050405_cef434a 275067.841 2105458.694
N_2175050407_1b81e1e 275086.900 2105457.200
N_2175050408_9066a79 275087.100 2105467.400
N_2175050409_13778e4 275087.480 2105485.447
N_2175050501_a6ff929 275088.848 2105515.543
N_2175050502_ddfafd4 275091.841 2105547.562
N_2175050503_a89c485 275093.151 2105581.255
N_2175051401_e677a6a 275111.000 2105456.000
N_2175051402_0784d50 275111.315 2105465.930
N_2175051403_5cda202 275134.100 2105456.800
N_2175051404_101b52f 275136.400 2105465.400
N_2175051405_f1df2c2 275167.405 2105457.979
N_2175051406_abe4972 275168.700 2105465.900
N_2175051407_1d17f29 275191.900 2105459.000
N_2175051408_816c586 275193.000 2105466.600
N_2175052002_b84db3c 275230.552 2105033.613
N_2175052003_5d1678e 275265.602 2105051.254
N_2175052004_765711b 275299.283 2105059.560
N_2175052401_ca8926b 275218.632 2105466.939
N_2175052402_49c455b 275230.732 2105460.185
N_2175052403_e050b19 275250.665 2105467.682
N_2175052404_a5b102a 275258.633 2105459.925
N_2175052406_add4098 275278.406 2105468.355
N_2175052407_571ea9c 275281.212 2105461.872
N_2175053001_ffce378 275329.366 2105061.899
N_2175053002_608cfd0 275363.595 2105063.703
N_2175053003_cc9fee4 275386.596 2105071.493
N_2175053401_307149d 275311.100 2105460.600
N_2175053402_253f22e 275312.771 2105469.458
N_2175053403_fc7ac8d 275344.929 2105462.001
N_2175053404_3ca4e6d 275346.855 2105470.266
N_2175053405_d347713 275374.900 2105463.600
N_2175053406_47a94a5 275377.504 2105470.959
N_2175054001_f54686e 275404.676 2105083.280
N_2175054002_abf7b89 275412.900 2105095.300
N_2175054003_b3ded0e 275426.259 2105085.442
N_2175054004_5b81dbc 275445.495 2105080.625
N_2175054005_51a5584 275465.320 2105075.630
N_2175054006_5a9b8c3 275482.125 2105071.588
N_2175054401_3bde289 275401.768 2105464.337
N_2175054402_9f097eb 275404.421 2105471.641
N_2175054403_d6e2821 275435.631 2105472.607
N_2175054407_db1f551 275453.675 2105468.230
N_2175054412_ab64442 275468.324 2105478.132
N_2175054413_799d305 275470.000 2105471.600
N_2175054418_37d7f57 275483.400 2105473.000
N_2175054420_cc7a013 275484.833 2105477.894
N_2175054501_6204b61 275472.165 2105503.098
N_2175054502_59ff116 275479.367 2105532.864
N_2175054503_5268cf1 275485.608 2105569.351
N_2175054504_58a7904 275491.369 2105593.356
N_2175054601_6dacbe4 275491.369 2105679.294
N_2175054602_e89206f 275493.770 2105651.448
N_2175054603_87c21e5 275494.250 2105616.881
N_2175054705_9df5a67 275485.300 2105733.800
N_2175055001_0b24f59 275501.874 2105067.093
N_2175055002_7434354 275520.602 2105062.840
N_2175055003_3d6ef67 275540.168 2105058.306
N_2175055004_7109728 275559.444 2105054.054
N_2175055005_eb75b17 275578.461 2105049.784
N_2175055006_8158f4c 275596.899 2105045.814
N_2175055401_66f9b19 275507.318 2105473.382
N_2175055403_945499f 275545.200 2105465.200
N_2175055404_ff770f9 275553.593 2105464.306
N_2175055405_3178c09 275558.703 2105463.046
N_2175055406_fcfbdf9 275574.405 2105490.453
N_2175055501_85a0e63 275586.347 2105521.718
N_2175055502_50bd2fe 275593.838 2105543.143
N_2175055503_855530e 275599.619 2105559.293
N_2175055701_8535fcb 275500.196 2105736.527
N_2175056001_5a19f5b 275617.014 2105040.997
N_2175056002_ac28031 275636.030 2105037.028
N_2175056003_31d10b5 275644.786 2105035.299
N_2175056004_6604f1b 275656.991 2105034.783
N_2175056005_d72127e 275674.699 2105032.493
N_2175056006_edb2400 275694.525 2105031.346
N_2175056501_84f2a28 275605.918 2105578.003
N_2175056502_0892b71 275610.845 2105598.753
N_2175056601_3bb7f5e 275617.459 2105619.138
N_2175056602_95648e5 275622.800 2105690.400
N_2175056603_6c5abc0 275622.903 2105642.603
N_2175056604_bb00d99 275626.142 2105664.886
N_2175056702_d30b2c4 275610.170 2105750.431
N_2175056703_276756e 275619.686 2105709.114
N_2175056704_f77d337 275622.408 2105770.674
N_2175056705_16f32cc 275627.939 2105794.291
N_2175056706_5c09a05 275632.087 2105799.365
N_2175056802_6b8fade 275634.702 2105801.782
N_2175056803_1d35822 275650.717 2105809.490
N_2175056804_1f9a69c 275666.532 2105814.102
N_2175056806_e1da8da 275684.700 2105815.100
N_2175057001_8afca3a 275713.541 2105030.217
N_2175057002_e634b11 275732.818 2105029.370
N_2175057003_6fd4194 275752.384 2105028.241
N_2175057004_4000c58 275772.527 2105027.659
N_2175057005_ae823d7 275776.572 2105027.307
N_2175057006_b1e0fd6 275791.515 2105023.266
N_2175057702_9de957d 275782.796 2105796.712
N_2175057801_186a472 275704.100 2105811.500
N_2175057802_42ad562 275723.757 2105807.946
N_2175057803_0535a5d 275743.700 2105804.424
N_2175057804_dad5bb7 275763.666 2105800.568
N_2175058001_63c365f 275810.214 2105018.167
N_2175058002_91e40e2 275828.363 2105013.632
N_2175058003_8b5b549 275844.983 2105009.023
N_2175058004_5b58a21 275863.824 2105004.828
N_2175058005_56f8f7c 275883.664 2105000.311
N_2175058701_38d3c2a 275801.901 2105792.524
N_2175058702_17677a5 275821.383 2105788.109
N_2175058703_113fc1d 275824.469 2105787.189
N_2175058704_c7d79dd 275829.588 2105786.195
N_2175058705_e50d357 275842.822 2105783.956
N_2175058706_fa82e33 275861.006 2105780.587
N_2175058708_8c98a8e 275879.888 2105777.156
N_2175058901_e290b18 275852.698 2105976.088
N_2175058902_12d11c0 275852.731 2105993.866
N_2175058903_2dbc4b7 275896.364 2105966.474
N_2175059001_81c8bd6 275922.057 2105001.661
N_2175059002_6309a0e 275941.591 2105007.696
N_2175059003_1db34ad 275960.643 2105003.429
N_2175059701_a9292b0 275899.981 2105772.757
N_2175059702_e0c74a2 275918.320 2105763.245
N_2175059703_e597f83 275935.838 2105751.890
N_2175059704_4c3691c 275955.118 2105747.198
N_2175059705_9b17945 275974.406 2105746.519
N_2175059706_f764351 275994.748 2105746.044
N_2175059801_420cb31 275989.378 2105898.777
N_2175059901_447068c 275942.236 2105954.667
N_2175059902_ce6f9d9 275950.146 2105943.189
N_2175059903_4d26030 275954.605 2105930.340
N_2175059904_6e9ae3b 275959.034 2105909.961
N_2175059905_acf40a0 275973.148 2105906.509
N_2175068001_013d591 275854.102 2106050.657
N_2175068002_fdfa45e 275856.186 2106025.066
N_2175068101_582c9d7 275861.596 2106143.451
N_2175068102_a2569ae 275870.424 2106161.387
N_2175068103_b96d924 275879.139 2106179.573
N_2175068104_70afae0 275883.842 2106199.065
N_2175068201_f019b25 275891.113 2106217.759
N_2175068401_a94ded1 275895.528 2106426.408
N_2175068402_0fc2647 275896.707 2106410.173
N_2175068403_5c04b87 275897.820 2106447.196
N_2175069201_5896c5f 275910.451 2106222.953
N_2175069202_85aea02 275928.921 2106228.177
N_2175069203_3db040e 275948.808 2106230.662
N_2175069204_96cf5bb 275968.459 2106232.685
N_2175069205_6da8ed3 275979.448 2106267.400
N_2175069206_4b58843 275988.465 2106232.246
N_2175069301_8b6ee25 275902.368 2106396.113
N_2175069302_7a1f9a4 275923.145 2106380.496
N_2175069303_18fccdc 275952.733 2106375.242
N_2175069304_a1e385d 275958.050 2106352.533
N_2175069305_4aaab73 275968.148 2106338.073
N_2175069306_d1c3ac8 275970.927 2106326.518
N_2175069307_747ab8b 275977.710 2106300.152
N_2175069401_f1428c9 275902.921 2106474.214
N_2175069501_37d2164 275907.665 2106503.749
N_2175069502_4982e52 275911.509 2106524.517
N_2175069503_212797f 275919.801 2106573.864
N_2175069601_259bb03 275925.259 2106609.968
N_2175069602_c4e977a 275948.230 2106616.115
N_2175069603_96da065 275965.590 2106621.460
N_2175069604_cab0d52 275994.507 2106630.406
N_2175070301_9c1479a 275006.900 2107383.600
N_2175070401_4d9fc13 275002.570 2107450.513
N_2175070402_8dbe0be 275004.636 2107447.561
N_2175070403_84204fd 275014.383 2107426.796
N_2175070404_d9a38a9 275017.625 2107447.857
N_2175070405_68ed85f 275018.215 2107440.772
N_2175070406_1bab45b 275038.100 2107424.500
N_2175070407_e8e2341 275061.905 2107499.812
N_2175070408_a181526 275068.200 2107467.000
N_2175070409_84c2fcd 275079.026 2107494.498
N_2175070410_8f0c9a5 275082.200 2107487.000
N_2175070501_f4fe85c 275060.724 2107504.830
N_2175070502_c0ceb77 275078.141 2107501.287
N_2175071501_8c121c1 275106.500 2107525.000
N_2175071502_750157c 275110.800 2107535.000
N_2175071503_d5a15da 275114.500 2107539.000
N_2175071504_c1c406c 275133.000 2107567.000
N_2175071505_78c1093 275136.100 2107575.000
N_2175071506_a87c352 275138.000 2107576.000
N_2175071507_51e3c7d 275143.900 2107586.000
N_2175071508_fabf2b9 275145.900 2107585.000
N_2175071509_79b494c 275147.400 2107589.000
N_2175071510_7efd3c0 275152.900 2107598.000
N_2175071511_3a37a05 275154.500 2107599.000
N_2175071601_1daef95 275157.400 2107602.000
N_2175071602_0c8f1e8 275172.900 2107628.000
N_2175071603_8dc18e1 275173.800 2107631.000
N_2175071604_2d47f2b 275175.400 2107630.000
N_2175071605_c6a5b1f 275180.900 2107640.000
N_2175071606_ca8b12d 275184.300 2107647.000
N_2175071607_b6a3eed 275186.500 2107646.000
N_2175071608_7ffb2e9 275197.500 2107664.000
N_2175071609_593447b 275199.300 2107670.000
N_2175072601_051aaa0 275201.800 2107668.000
N_2175072602_1e7e833 275218.600 2107695.000
N_2175072701_710e208 275233.100 2107718.000
N_2175072702_37bf34c 275240.100 2107731.300
N_2175072703_952eb1d 275242.100 2107737.000
N_2175072704_9daec82 275249.400 2107743.100
N_2175072705_8f09004 275257.300 2107760.000
N_2175072706_79fbf9a 275258.400 2107759.500
N_2175072707_84cec8d 275265.700 2107768.000
N_2175072708_ca64e28 275273.200 2107782.000
N_2175072709_266a0a7 275274.000 2107786.000
N_2175072710_2e6e580 275276.200 2107785.000
N_2175072801_998391b 275257.700 2107848.400
N_2175072802_152819b 275267.400 2107865.200
N_2175072803_33cc2e8 275277.200 2107833.600
N_2175072804_3c7464c 275289.000 2107810.000
N_2175072805_803fd58 275291.100 2107808.000
N_2175072806_ae31b2b 275295.900 2107842.900
N_2175072807_e0f5def 275298.300 2107817.500
N_2175073701_580e9c8 275334.588 2107780.472
N_2175073702_85bbd7f 275347.000 2107795.300
N_2175073801_2ac2d4e 275304.863 2107836.315
N_2175073802_d6996a1 275306.782 2107834.396
N_2175073803_ddcc79a 275307.876 2107846.884
N_2175073804_b4a0350 275308.893 2107832.093
N_2175073805_aa7927e 275309.841 2107846.229
N_2175073806_4275dcb 275312.347 2107821.156
N_2175073808_04533b2 275316.000 2107846.000
N_2175073809_2498253 275332.000 2107872.000
N_2175073810_89d8f3d 275336.600 2107869.100
N_2175073811_d470391 275348.000 2107894.000
N_2175073812_8987809 275363.919 2107815.692
N_2175073813_2280a90 275383.500 2107880.800
N_2175073814_48391e8 275394.523 2107872.792
N_2175073901_9145a17 275355.539 2107918.460
N_2175073902_19ccc16 275356.807 2107901.367
N_2175073903_f8e6892 275357.177 2107917.314
N_2175073904_ed10976 275364.000 2107920.000
N_2175073905_bf65de7 275366.300 2107917.700
N_2175073906_12957fb 275379.000 2107944.000
N_2175073907_ad52ae9 275381.600 2107942.800
N_2175073908_23bff7a 275388.133 2107969.890
N_2175073909_d0a8222 275389.443 2107968.416
N_2175073910_386bb70 275396.265 2107963.978
N_2175074801_973af67 275403.861 2107866.045
N_2175074802_d9b7c65 275428.421 2107899.689
N_2175074803_e708231 275467.000 2107882.000
N_2175074804_ffe6192 275477.000 2107878.000
N_2175074901_c32ef09 275404.900 2107917.300
N_2175074902_89f2072 275409.200 2107990.000
N_2175074903_d03494a 275419.762 2107905.769
N_2175074904_ab68ada 275451.200 2107930.600
N_2175074905_867c78a 275453.646 2107934.192
N_2175074906_9941bcb 275476.280 2107922.892
N_2175074907_db7b34f 275485.823 2107915.652
N_2175074908_9bf95c1 275494.708 2107910.387
N_2175075802_b3fa922 275518.000 2107836.000
N_2175075803_f52f73f 275522.000 2107843.000
N_2175075804_ae46829 275532.000 2107865.000
N_2175075805_e0e6cfc 275534.000 2107829.000
N_2175075806_0387dc8 275540.000 2107879.000
N_2175075807_ea3f99e 275549.000 2107864.500
N_2175075808_9d857e0 275562.000 2107811.500
N_2175075809_43554d9 275584.000 2107843.500
N_2175075901_dd4946c 275554.000 2107908.000
N_2175075902_11fd36b 275565.000 2107929.000
N_2175075903_9d85d98 275582.000 2107961.000
N_2175075904_02a9432 275594.000 2107987.000
N_2175076701_2f7fd7b 275606.000 2107786.500
N_2175076702_246112f 275645.000 2107761.500
N_2175076703_6b73ac3 275660.000 2107796.500
N_2175076704_c5d7ff7 275672.000 2107745.500
N_2175076705_9ca6658 275692.000 2107776.500
N_2175076801_088874a 275616.000 2107823.500
N_2175077701_04c3c2e 275703.000 2107726.500
N_2175077702_7506f6a 275723.000 2107758.500
N_2175077703_3f98362 275730.000 2107711.500
N_2175077706_9ead686 275734.800 2107748.800
N_2175078701_f7ed602 275858.238 2107745.128
N_2175078702_ed53eeb 275876.713 2107728.004
N_2175078703_d8c6355 275891.300 2107702.000
N_2175079602_d10733a 275937.400 2107674.800
N_2175079603_ecc501e 275966.179 2107684.859
N_2175079604_0163657 275994.000 2107695.400
N_2175079605_97c7e26 275911.600 2107679.900
N_2175084001_0c60efb 275423.200 2108012.000
N_2175084002_7a2e696 275432.200 2108030.000
N_2175084003_e422d8f 275434.200 2108040.000
N_2175084004_d0ca886 275465.500 2108082.700
N_2175084101_b4b5d69 275491.749 2108189.377
N_2175084102_abcd483 275493.600 2108151.200
N_2175085501_321c250 275522.002 2108567.236
N_2175085502_86192ed 275538.497 2108569.954
N_2175085503_993ab07 275547.319 2108577.227
N_2175085504_e985229 275567.096 2108568.885
N_2175085505_c5c7f14 275584.077 2108572.592
N_2175085801_415cc53 275569.576 2108873.068
N_2175086001_d6cf941 275609.000 2108017.000
N_2175086501_a7b3f12 275606.006 2108578.797
N_2175086502_1dbe4e2 275621.710 2108581.705
N_2175086503_f360a45 275647.312 2108573.753
N_2175086801_3aa6036 275606.428 2108864.912
N_2175086802_2aef967 275651.554 2108846.129
N_2175087701_307a8c8 275756.201 2108780.359
N_2175087801_fa3dde1 275700.057 2108822.849
N_2175087802_d57e4ad 275727.243 2108806.946
N_2175091801_34faff5 275175.095 2109825.272
N_2175092801_eff7b13 275284.218 2109825.272
N_2175092901_56e31ad 275258.758 2109920.902
N_2175093901_82b9aa9 275336.093 2109988.165
N_2175103003_dffa4c2 275396.652 2110014.119
N_2175104002_2b6cdc9 275439.100 2110037.200
N_2175104003_f2bba88 275495.694 2110041.962
N_2175105001_92548a2 275549.041 2110059.276
N_2175105002_2641c3f 275588.923 2110068.895
N_2175106001_f54b4c2 275609.084 2110073.687
N_2175106002_012367f 275626.891 2110082.362
N_2175106003_8394bf5 275642.785 2110076.590
N_2175106004_50327fb 275668.533 2110075.240
N_2175106005_f2293b2 275683.288 2110054.273
N_2175106006_943728e 275690.277 2110043.790
N_2175106401_10bd2b2 275673.100 2110425.100
N_2175106402_562e8b0 275680.841 2110455.389
N_2175106403_9a1d2f9 275692.691 2110480.668
N_2175106501_6d18b23 275692.691 2110522.272
N_2175106502_6fa4ca6 275698.747 2110503.840
N_2175106601_500f48f 275667.656 2110677.959
N_2175106602_b6922e7 275668.785 2110669.700
N_2175106603_3842227 275669.294 2110665.923
N_2175106604_42fd17e 275671.674 2110665.087
N_2175106605_e952b57 275685.234 2110666.507
N_2175106606_91977a8 275690.966 2110652.253
N_2175107001_396c991 275706.372 2110049.826
N_2175107002_7e5b470 275721.060 2110057.556
N_2175107003_478546c 275745.024 2110072.244
N_2175107004_478475a 275787.542 2110093.890
N_2175107501_c9424f1 275704.540 2110544.655
N_2175107502_b1a7af8 275726.628 2110550.907
N_2175107503_f962168 275733.276 2110598.759
N_2175107504_e52379d 275738.863 2110569.542
N_2175107505_7848397 275745.844 2110591.083
N_2175107506_f9b0bad 275763.005 2110580.552
N_2175107507_085e678 275784.048 2110568.861
N_2175107508_ea2a1c7 275798.488 2110571.056
N_2175107601_b0586d5 275705.372 2110638.222
N_2175107602_5e29e90 275716.348 2110621.621
N_2175107603_264928d 275721.356 2110607.381
N_2175108101_5d5174e 275826.968 2110117.081
N_2175108102_cb8d59c 275850.159 2110138.727
N_2175108103_174ee1b 275877.989 2110151.095
N_2175108104_ca2a76e 275889.585 2110153.415
N_2175108501_3bfbcaa 275817.718 2110576.164
N_2175108502_930df9a 275832.268 2110592.042
N_2175108503_0c757ca 275837.151 2110597.364
N_2175108601_c5c0a47 275840.227 2110609.821
N_2175108602_323d697 275842.513 2110618.856
N_2175108603_fcf961d 275852.358 2110623.402
N_2175108604_be0d2c7 275870.556 2110631.676
N_2175108605_6665352 275888.819 2110639.763
N_2175109101_9d23aad 275901.180 2110158.826
N_2175109102_ac2ad38 275924.372 2110170.422
N_2175109103_338036d 275949.883 2110178.925
N_2175109601_0d211e3 275903.927 2110635.332
N_2175109602_d8718c5 275932.621 2110626.608
N_2175109603_3ebe86f 275960.478 2110627.558
N_2175109604_6cccc77 275966.566 2110631.655
N_2175109605_a378776 275987.694 2110625.562
N_2175117301_d386b54 275799.800 2111300.100
N_2175118201_0363b93 275805.400 2111294.700
N_2175118202_ae97151 275822.900 2111285.800
N_2175118203_a15a049 275845.900 2111273.100
N_2175118204_f0d08b8 275870.400 2111260.900
N_2175118205_ad6344b 275893.400 2111249.600
N_2175118301_013ef37 275806.500 2111355.600
N_2175118302_118ec9f 275807.200 2111334.200
N_2175118303_e5ee36d 275807.400 2111315.500
N_2175119201_cdc4177 275920.300 2111236.500
N_2175119202_b591838 275946.700 2111224.100
N_2175119203_b540084 275975.500 2111212.300
N_2175124901_94754a9 275433.808 2112977.321
N_2175124902_7175d5a 275439.157 2112947.919
N_2175124903_c11c8a1 275442.900 2112931.900
N_2175124904_5d0a3e3 275447.200 2112927.900
N_2175124905_fbab835 275454.400 2112930.100
N_2175124906_da4e040 275461.600 2112933.800
N_2175124907_322ac95 275474.800 2112951.700
N_2175125901_290cf26 275503.300 2112962.200
N_2175125902_f8ffcf7 275531.500 2112972.700
N_2175125903_f3bac1c 275559.600 2112982.900
N_2175125904_3f884ff 275587.700 2112993.500
N_2175130501_aac3f44 275099.500 2113596.900
N_2175130601_ce7d7b5 275038.100 2113699.700
N_2175130602_3d01653 275050.300 2113680.300
N_2175130603_0d3ea1d 275052.600 2113676.700
N_2175130604_ba136c9 275069.500 2113648.700
N_2175130605_acd3666 275085.300 2113623.000
N_2175130606_f2a6dbb 275094.100 2113687.400
N_2175130701_3801d9b 275009.600 2113746.800
N_2175130702_4f1ff33 275024.700 2113720.800
N_2175130703_4069fde 275041.800 2113758.300
N_2175130704_e08a078 275058.100 2113735.800
N_2175130705_25c695b 275063.900 2113734.100
N_2175130706_8e61755 275068.700 2113721.500
N_2175130707_295c63f 275076.200 2113711.400
N_2175131401_3b8bab5 275156.700 2113491.600
N_2175131402_af0ecd1 275163.700 2113478.900
N_2175131403_8a42a57 275165.400 2113475.500
N_2175131404_d5e5921 275171.200 2113465.300
N_2175131405_6ab7213 275185.300 2113438.800
N_2175131501_64decf6 275114.000 2113570.500
N_2175131502_e8a868a 275122.100 2113555.800
N_2175131503_c88c430 275125.600 2113548.800
N_2175131504_831e1d3 275128.200 2113544.400
N_2175131505_0e3b3f8 275142.300 2113517.900
N_2175131506_0e03dee 275165.400 2113556.000
N_2175131507_fc7244f 275181.300 2113530.700
N_2175131508_179f014 275182.700 2113527.500
N_2175131509_d6a7410 275186.800 2113519.100
N_2175131510_40b2dc6 275194.500 2113503.600
N_2175131601_c33e265 275109.300 2113661.900
N_2175131602_813ae49 275124.300 2113635.700
N_2175131603_93b4caf 275134.000 2113608.600
N_2175132101_c260074 275273.000 2113165.400
N_2175132102_981edbe 275278.800 2113175.800
N_2175132103_0c3a503 275286.100 2113151.700
N_2175132104_2202694 275289.600 2113147.300
N_2175132105_8e57304 275299.200 2113134.500
N_2175132201_a92bee4 275270.500 2113280.300
N_2175132202_62100c4 275285.100 2113254.200
N_2175132203_c294e2e 275294.100 2113201.600
N_2175132301_e39fbea 275214.200 2113386.700
N_2175132302_33fcf06 275217.300 2113381.000
N_2175132303_217daae 275228.400 2113359.400
N_2175132304_74872aa 275233.200 2113350.900
N_2175132305_c405010 275242.200 2113333.400
N_2175132306_5b745e4 275252.100 2113398.200
N_2175132307_eb6dec5 275256.600 2113307.000
N_2175132308_fa7fe92 275267.000 2113372.400
N_2175132309_ad57394 275281.500 2113346.300
N_2175132310_9d6a9a7 275295.900 2113320.200
N_2175132401_6bd9094 275200.100 2113412.800
N_2175132402_5fc8784 275208.700 2113477.200
N_2175132403_58ca80d 275222.800 2113450.700
N_2175132404_01d87c1 275237.000 2113424.300
N_2175133101_720d41c 275305.700 2113135.800
N_2175133102_66bc9ae 275333.400 2113147.100
N_2175133103_4ee3d75 275346.600 2113153.800
N_2175133104_ed0d551 275356.700 2113193.600
N_2175133105_c52e2c1 275362.900 2113162.600
N_2175133106_8489fa0 275368.500 2113165.400
N_2175133107_1d669c5 275377.100 2113147.200
N_2175133108_98a14ad 275389.300 2113119.600
N_2175133201_62e38d2 275300.700 2113214.500
N_2175133202_3a1b80e 275302.300 2113224.000
N_2175133203_2e11d46 275310.400 2113292.300
N_2175133204_780e6a4 275325.200 2113267.400
N_2175133205_19fdc59 275333.000 2113234.400
N_2175133206_58753cf 275338.500 2113244.800
N_2175133207_44a1840 275342.400 2113252.400
N_2175133208_0ebe8b9 275345.400 2113221.200
N_2175134001_de8fa66 275402.717 2113090.469
N_2175134002_e403116 275411.168 2113073.326
N_2175134003_be96354 275413.560 2113064.944
N_2175134004_90cf5a7 275421.800 2113036.000
N_2175134005_747272e 275428.799 2113006.858
N_2175134901_dd260ed 275428.298 2113989.983
N_2175134902_027b346 275449.613 2113979.626
N_2175134903_e6fd5f6 275477.246 2113967.842
N_2175134904_b1d46a1 275484.987 2113964.512
N_2175134905_0e9c7bf 275489.156 2113962.843
N_2175135101_65982f3 275569.000 2113142.700
N_2175135901_51a19e5 275505.200 2113956.300
N_2175135902_49d19f8 275532.900 2113945.600
N_2175135903_b5ea962 275547.478 2113938.207
N_2175135904_c1e2a32 275557.949 2113931.422
N_2175135905_20674cc 275589.041 2113929.043
N_2175136001_f4c7984 275615.577 2113004.040
N_2175136002_1e1eaa6 275629.200 2113036.100
N_2175136003_f062fd4 275633.856 2113012.782
N_2175136004_656aa65 275671.500 2113025.900
N_2175136005_2e364da 275682.200 2113030.200
N_2175136101_f2df2f5 275603.200 2113143.300
N_2175136901_4c9f070 275648.817 2113925.704
N_2175136902_dd51962 275678.907 2113923.838
N_2175137001_667366c 275702.300 2113027.500
N_2175137002_905d582 275730.400 2113015.600
N_2175137003_54ebb90 275758.600 2113006.400
N_2175137004_583c626 275782.900 2113003.600
N_2175137005_56eb035 275790.100 2113007.800
N_2175137801_332309d 275711.146 2113889.141
N_2175137802_052a2e3 275717.578 2113886.161
N_2175137803_b6271cd 275728.405 2113881.278
N_2175137804_d32977e 275796.342 2113899.857
N_2175137901_92d3243 275708.787 2113921.576
N_2175137902_b7fd78d 275714.750 2113902.172
N_2175137903_7a829e6 275719.986 2113918.121
N_2175137904_d329172 275745.793 2113906.758
N_2175137905_c82c110 275754.261 2113917.591
N_2175137906_8cfa3c4 275769.258 2113912.592
N_2175138001_7e7a6c5 275813.100 2113020.900
N_2175138002_e0271b1 275839.400 2113035.200
N_2175138003_4a1fb45 275863.400 2113052.500
N_2175138004_fbee0b3 275887.500 2113070.300
N_2175138501_43ac856 275808.200 2113560.700
N_2175138502_5ac50c5 275821.100 2113561.500
N_2175138503_b14ed7b 275866.300 2113564.600
N_2175138504_2e869c6 275896.100 2113566.300
N_2175138801_44483dd 275823.862 2113885.452
N_2175138802_f334088 275863.163 2113885.209
N_2175138803_8a77581 275881.489 2113886.879
N_2175139001_835dd75 275910.900 2113089.100
N_2175139101_ba72e5d 275934.900 2113106.900
N_2175139102_3a0196e 275956.200 2113128.200
N_2175139103_6294386 275978.400 2113148.200
N_2175139501_0eef79b 275926.400 2113568.700
N_2175139502_ed97c13 275956.200 2113571.000
N_2175139503_477b5b7 275987.400 2113573.100
N_2175139801_e6610d3 275918.705 2113884.850
N_2175139802_a3cfc7a 275954.790 2113867.116
N_2175139803_9a4403b 275981.115 2113852.595
N_2175139901_ed9aead 275910.092 2113991.984
N_2175139902_e0a6657 275915.635 2113965.679
N_2175139903_91ea8d0 275919.675 2113937.830
N_2175139904_8bdeafa 275922.800 2113907.100
N_2175140301_05bf33c 275002.500 2114365.800
N_2175140302_2844647 275019.600 2114357.800
N_2175140303_add17ee 275025.300 2114339.100
N_2175140304_a5b2cad 275060.900 2114335.300
N_2175141201_dd81376 275183.900 2114296.100
N_2175141301_3575cac 275135.900 2114312.200
N_2175142201_6a95c9c 275206.200 2114289.900
N_2175142202_a8d4173 275236.100 2114285.100
N_2175142203_b70f26f 275260.800 2114274.200
N_2175142204_2c64cdf 275276.000 2114267.600
N_2175143001_29c7f5a 275340.307 2114055.087
N_2175143002_001d14f 275341.616 2114050.564
N_2175143003_d1aff91 275344.250 2114066.629
N_2175143004_7306331 275353.299 2114044.614
N_2175143005_0d09e58 275357.824 2114093.258
N_2175143006_143711a 275379.850 2114030.684
N_2175143101_2129f00 275363.674 2114122.902
N_2175143102_62960e3 275364.983 2114127.901
N_2175143103_2e9de1f 275367.800 2114149.700
N_2175143104_b2e2e4d 275369.379 2114199.270
N_2175143105_f399b4e 275377.475 2114178.439
N_2175143106_4f4c3fa 275379.382 2114190.582
N_2175143201_92dbf4c 275308.300 2114243.300
N_2175143202_c929593 275320.361 2114227.854
N_2175143203_5c3e225 275322.382 2114220.723
N_2175143204_96e61ba 275326.968 2114214.870
N_2175143205_aab1beb 275341.034 2114217.722
N_2175143206_5b9ce66 275357.582 2114207.841
N_2175143801_1e49cca 275390.419 2114897.611
N_2175143901_b7f5923 275376.117 2114910.472
N_2175143902_49ab38d 275386.961 2114928.323
N_2175143903_8c0982c 275389.465 2114955.706
N_2175143904_2263fc3 275394.168 2114978.969
N_2175144001_63d5191 275406.757 2114017.114
N_2175144002_fb74daf 275416.453 2114012.106
N_2175144801_86c8b4b 275430.431 2114888.205
N_2175144802_8115aa8 275451.148 2114869.878
N_2175144803_a60daeb 275483.791 2114868.326
N_2175144901_871cb2f 275406.200 2114982.200
N_2175144902_86e7ed0 275426.132 2114903.561
N_2175145801_cca7abe 275504.234 2114821.665
N_2175145802_212b3e0 275544.359 2114827.023
N_2175145803_4d37ea3 275562.943 2114819.762
N_2175145804_6a707fc 275592.354 2114813.094
N_2175146701_d3d0b97 275689.266 2114797.845
N_2175146801_95fbf60 275629.748 2114810.931
N_2175146802_0dfc848 275667.748 2114802.752
N_2175147801_e3e15d2 275709.272 2114814.988
N_2175147802_4cbaaa3 275730.942 2114833.530
N_2175147803_38fb011 275750.706 2114874.115
N_2175147804_e29438f 275755.118 2114854.002
N_2175147805_7b0240b 275761.194 2114876.197
N_2175147806_8ee838f 275789.894 2114869.169
N_2175148001_3b5f8f9 275856.018 2114086.005
N_2175148002_24e9c3a 275898.780 2114052.099
N_2175148101_e6e4deb 275870.111 2114112.021
N_2175148102_d45636a 275880.629 2114130.638
N_2175148103_a407f05 275890.204 2114146.708
N_2175148401_c6102b5 275861.628 2114472.575
N_2175148402_998da6d 275865.199 2114484.718
N_2175148403_c8a12ef 275878.418 2114461.742
N_2175148501_509831a 275873.005 2114509.821
N_2175148502_39c9d96 275886.110 2114568.742
N_2175148503_7540e12 275888.017 2114551.833
N_2175148504_0fb457c 275891.556 2114595.083
N_2175148601_cb5e1dc 275898.715 2114613.177
N_2175148701_04f667e 275875.687 2114775.408
N_2175148702_c06d9cf 275882.492 2114787.891
N_2175148703_24a3e20 275885.713 2114794.415
N_2175148704_29b4a80 275892.364 2114770.409
N_2175148801_a1a5e47 275819.063 2114861.675
N_2175148802_8357131 275846.341 2114849.218
N_2175148803_632f217 275859.204 2114825.892
N_2175148804_7e4a042 275859.500 2114878.700
N_2175148805_d54c812 275882.300 2114873.000
N_2175148806_9cc56d4 275885.609 2114824.034
N_2175148807_87930c2 275886.918 2114815.697
N_2175148808_683ade9 275898.500 2114859.600
N_2175148901_7ef597e 275869.400 2114910.700
N_2175148902_7be9e86 275877.900 2114953.200
N_2175148903_487d20b 275882.900 2114997.700
N_2175149001_f85cc36 275908.500 2114028.500
N_2175149101_a607f64 275904.907 2114169.960
N_2175149102_5ed199a 275916.532 2114187.740
N_2175149201_540983b 275927.474 2114207.573
N_2175149202_14092c6 275938.074 2114224.669
N_2175149203_4c5ab12 275950.042 2114243.476
N_2175149204_16d9ab1 275962.352 2114265.359
N_2175149205_76373f0 275963.726 2114292.654
N_2175149206_b045082 275966.455 2114272.540
N_2175149207_172f2a5 275967.942 2114284.559
N_2175149301_735b8c0 275953.595 2114300.238
N_2175149302_808d29b 275957.408 2114329.999
N_2175149303_b58487b 275959.372 2114398.496
N_2175149304_5b7005f 275960.078 2114349.179
N_2175149401_e221e8e 275901.640 2114444.726
N_2175149402_c79d50c 275926.446 2114426.929
N_2175149403_94e03ae 275963.468 2114423.770
N_2175149404_2235313 275979.433 2114448.301
N_2175149405_bb307fe 275987.054 2114461.539
N_2175149406_6a0e5ce 275989.862 2114472.369
N_2175149407_98d3a82 275991.868 2114479.991
N_2175149408_203641a 275999.490 2114497.239
N_2175149501_cffd414 275936.700 2114541.100
N_2175149601_421ae79 275902.173 2114633.397
N_2175149602_284b9fe 275909.187 2114671.254
N_2175149603_fdd96d7 275912.290 2114697.793
N_2175149701_1730e8f 275919.626 2114758.742
N_2175149702_ecd24ba 275919.869 2114730.174
N_2175149801_420377f 275900.100 2114806.300
N_2175149802_600b65e 275906.700 2114819.500
N_2175149803_77d7b6d 275925.700 2114850.000
N_2175152301_1ac9081 275244.278 2115362.114
N_2175152302_4a86727 275266.488 2115362.114
N_2175152303_aa49d53 275293.100 2115366.100
N_2175153101_16aa8f5 275381.547 2115130.403
N_2175153102_cc0e9b1 275386.734 2115163.691
N_2175153103_773ebd3 275391.388 2115193.569
N_2175153201_8b98d40 275395.202 2115223.204
N_2175153202_5ee4ba4 275396.721 2115253.387
N_2175153301_2d72666 275312.400 2115369.600
N_2175153302_ef9d9a7 275337.800 2115375.200
N_2175153303_8bf7455 275366.938 2115381.603
N_2175153304_ee1af97 275396.500 2115387.700
N_2175154001_e081a83 275422.626 2115000.984
N_2175154002_47418f5 275425.615 2115030.862
N_2175154003_be821be 275425.971 2115035.744
N_2175154004_b4665d9 275428.104 2115048.516
N_2175154005_09e6958 275429.898 2115060.892
N_2175154006_04b37c8 275434.067 2115090.537
N_2175154101_9ab93f3 275409.762 2115127.549
N_2175154102_e039d6c 275437.994 2115124.462
N_2175154201_6504487 275403.444 2115282.340
N_2175154301_b2fedd0 275407.807 2115311.805
N_2175154302_dce98de 275412.219 2115341.458
N_2175154303_d34c8f7 275418.166 2115370.977
N_2175158001_86f76ce 275867.169 2115045.218
N_2175158002_821a124 275868.339 2115023.945
N_2175158003_d1e344e 275871.970 2115057.359
N_2175158004_28fc47b 275886.653 2115069.861
N_2175158005_95f49da 275889.483 2115002.620
N_2175158006_5549e24 275891.504 2115026.708
N_2175158101_52f8dcb 275850.600 2115140.100
N_2175158102_83f9582 275894.000 2115138.200
N_2175158201_4b45e80 275871.887 2115278.471
N_2175158202_4bd76d9 275878.900 2115252.200
N_2175158203_d48bd21 275888.900 2115211.100
N_2176040901_c0caa25 276004.891 2104965.817
N_2176040902_ba468d3 276021.092 2104954.195
N_2176040903_8947814 276038.755 2104945.010
N_2176040904_99f0ac1 276056.403 2104935.968
N_2176040905_334c108 276073.276 2104925.550
N_2176040906_c6aad71 276086.227 2104917.289
N_2176040907_16ea839 276090.135 2104914.785
N_2176041801_dc6d7f2 276122.300 2104893.385
N_2176041802_09282f0 276139.121 2104883.322
N_2176041803_334fbb2 276158.410 2104874.884
N_2176041804_c6860a4 276173.600 2104867.100
N_2176041805_c4580cd 276199.700 2104871.100
N_2176041901_00e67c4 276106.229 2104904.056
N_2176042801_e8a8367 276217.800 2104866.000
N_2176042802_a7fc8de 276233.300 2104861.100
N_2176042803_e9fc880 276254.300 2104855.200
N_2176042804_08e3830 276264.600 2104853.200
N_2176042805_7b95b92 276278.600 2104851.100
N_2176042806_ae7d7ba 276298.684 2104848.806
N_2176043801_eb6b2df 276316.328 2104847.551
N_2176043802_ba8d448 276337.573 2104844.099
N_2176043803_d61bfa4 276344.654 2104841.694
N_2176043804_797acb8 276351.736 2104838.138
N_2176043805_7e63bc1 276377.661 2104825.273
N_2176043806_25d0164 276396.795 2104825.968
N_2176044801_733c7e7 276410.678 2104829.183
N_2176044802_27d28ee 276441.155 2104812.303
N_2176044803_4ed2583 276483.964 2104810.148
N_2176045801_8e99dba 276529.500 2104806.500
N_2176045802_4ee1ceb 276573.000 2104800.800
N_2176045803_1e8de10 276582.400 2104801.600
N_2176045901_61ec37d 276598.751 2104956.737
N_2176046501_8151f30 276697.200 2104557.500
N_2176046601_9cbe2a2 276615.954 2104674.634
N_2176047501_f0a8210 276702.900 2104549.300
N_2176050701_88e71af 276009.304 2105741.487
N_2176050702_15fb2fe 276013.161 2105739.839
N_2176050703_2bf44bc 276015.314 2105739.136
N_2176050704_576ec4e 276033.585 2105733.481
N_2176050705_c8c2aa1 276041.400 2105797.800
N_2176050706_322b718 276043.066 2105785.039
N_2176050707_09aac86 276050.676 2105779.476
N_2176050708_80b672c 276052.195 2105727.774
N_2176050709_5daa1e6 276068.500 2105770.900
N_2176050711_5fc1931 276071.700 2105753.900
N_2176050712_b3c3844 276072.600 2105721.500
N_2176050713_17d5d0d 276092.621 2105719.257
N_2176050801_cbc067a 276003.600 2105876.800
N_2176050802_88683f1 276017.900 2105847.400
N_2176050803_cbd5585 276028.776 2105835.597
N_2176050804_3adf0f1 276040.177 2105828.322
N_2176050805_e7df726 276042.673 2105811.707
N_2176051701_5a8d984 276112.533 2105717.023
N_2176051702_1fe7367 276133.075 2105714.668
N_2176051703_5b57a22 276153.534 2105712.444
N_2176051704_915d8fa 276173.434 2105707.790
N_2176051705_729aeaa 276190.070 2105719.262
N_2176051706_b00b055 276195.165 2105744.089
N_2176051707_914cb8c 276198.496 2105761.562
N_2176052701_599a54c 276202.360 2105782.116
N_2176052702_89a7c4a 276224.847 2105796.550
N_2176052703_35b5b4f 276244.515 2105792.780
N_2176052704_33417ab 276264.183 2105789.009
N_2176052705_234620a 276283.528 2105785.398
N_2176052801_2cd1a22 276205.465 2105800.174
N_2176052802_6b3f405 276209.384 2105829.117
N_2176052803_be51ef9 276213.961 2105860.807
N_2176052804_dcaf99b 276216.591 2105880.392
N_2176052901_6f69f3b 276219.193 2105900.131
N_2176052902_68962ae 276219.981 2105920.346
N_2176052903_92d595a 276220.637 2105940.160
N_2176052904_2542d0f 276221.424 2105960.248
N_2176052905_619378d 276222.212 2105980.335
N_2176053701_628f18e 276303.208 2105781.627
N_2176053702_a693891 276322.960 2105777.936
N_2176053703_3d6740d 276342.629 2105774.325
N_2176053704_9c6ba7e 276362.297 2105770.554
N_2176053705_7120cd7 276381.810 2105766.539
N_2176054701_c282a68 276401.322 2105762.609
N_2176054702_70b0f95 276420.907 2105758.593
N_2176054703_eaa84f4 276440.491 2105754.663
N_2176054704_275f91c 276459.920 2105750.727
N_2176054705_44c869f 276479.348 2105746.797
N_2176054706_c1125f6 276498.537 2105743.026
N_2176055701_8566e1e 276518.022 2105739.224
N_2176055702_63155e7 276537.482 2105735.195
N_2176055703_ee94fc1 276556.844 2105731.268
N_2176055704_e6cdf64 276576.394 2105727.342
N_2176055705_13309ec 276596.023 2105723.581
N_2176056101_5c70d12 276649.054 2105199.355
N_2176056701_5b3fef4 276615.642 2105719.690
N_2176056702_0ac10b7 276635.759 2105715.396
N_2176056703_30869b9 276654.933 2105711.406
N_2176056704_270457a 276665.648 2105709.217
N_2176056705_1aa4407 276672.093 2105727.925
N_2176056706_29b6d0a 276674.205 2105707.202
N_2176056707_a30e28a 276678.969 2105747.034
N_2176056708_c795c3c 276688.463 2105764.884
N_2176056709_1b9b829 276694.086 2105701.932
N_2176056710_a0463d9 276698.569 2105782.625
N_2176057401_13e01a7 276720.587 2105419.507
N_2176057501_9bb8938 276736.000 2105548.500
N_2176057502_ba1adb2 276743.900 2105547.500
N_2176057601_9756338 276716.200 2105697.600
N_2176057602_ded4d9a 276732.482 2105694.079
N_2176057603_13d9aac 276757.500 2105688.300
N_2176057604_342ed99 276788.800 2105677.800
N_2176057801_8a87625 276708.571 2105800.264
N_2176057802_db5c71a 276718.365 2105817.709
N_2176057803_b234e0f 276728.367 2105834.842
N_2176057804_d2decd7 276737.953 2105852.685
N_2176057805_f77f922 276747.707 2105870.325
N_2176057806_79f8e99 276757.839 2105887.694
N_2176057901_fe83be3 276767.425 2105905.333
N_2176057902_867a776 276776.464 2105923.159
N_2176057903_e2acba5 276784.515 2105941.434
N_2176057904_e3712a9 276792.826 2105959.650
N_2176058701_b195382 276868.665 2105784.175
N_2176058801_8ad6323 276881.800 2105808.900
N_2176058901_ac1cfd1 276800.786 2105977.970
N_2176058902_d68d3ae 276808.687 2105996.611
N_2176059901_948bddd 276957.727 2105951.805
N_2176060201_8339ee1 276008.600 2106231.600
N_2176060202_e70f7ad 276020.974 2106263.452
N_2176060203_0888963 276028.100 2106229.300
N_2176060204_5c2f9f7 276041.438 2106231.321
N_2176060205_24636c6 276043.174 2106259.687
N_2176060206_025056d 276054.609 2106261.698
N_2176060207_9f43a04 276072.300 2106230.100
N_2176060208_f167ed8 276083.731 2106228.404
N_2176060209_f5ec416 276088.722 2106228.001
N_2176060210_a454132 276094.900 2106227.600
N_2176060301_8f9bc73 276051.733 2106388.282
N_2176060302_f559ba0 276053.739 2106314.115
N_2176060401_f2ea2c8 276048.657 2106459.890
N_2176060501_3d97b91 276045.581 2106567.321
N_2176060502_0cd1994 276046.919 2106526.272
N_2176060601_59f9f38 276016.400 2106634.700
N_2176060602_169d1f0 276034.900 2106636.800
N_2176060603_fea2b4d 276043.500 2106636.800
N_2176060604_5aa06f5 276045.100 2106601.400
N_2176060605_f564917 276090.622 2106622.859
N_2176060803_00ff0b7 276040.700 2106832.100
N_2176061201_3d99867 276112.520 2106226.038
N_2176061202_4ed9b2e 276134.203 2106224.084
N_2176061203_46daa6d 276150.025 2106223.889
N_2176061204_f40b8cb 276168.582 2106223.693
N_2176061205_73c6565 276188.506 2106221.935
N_2176061601_23ca14e 276160.230 2106623.227
N_2176062001_0eff5d5 276223.000 2106000.100
N_2176062002_1083cb3 276223.800 2106020.000
N_2176062003_f471446 276224.400 2106039.800
N_2176062004_8f37a70 276225.400 2106059.900
N_2176062005_e77389b 276226.500 2106079.800
N_2176062101_871b13a 276226.700 2106100.000
N_2176062102_bb77733 276227.000 2106120.100
N_2176062103_68e79be 276227.500 2106140.000
N_2176062104_03099fb 276227.800 2106160.100
N_2176062105_9f4ca85 276228.100 2106180.200
N_2176062201_0980e00 276205.696 2106221.740
N_2176062202_3d9f7a6 276228.160 2106221.154
N_2176062203_a15d99d 276228.200 2106289.400
N_2176062204_b6376b7 276230.229 2106253.082
N_2176062301_dbb1546 276225.213 2106376.030
N_2176062302_a2814f1 276225.932 2106334.239
N_2176062401_c82ab85 276220.973 2106489.003
N_2176062402_393a305 276221.404 2106450.379
N_2176062403_e1402c2 276222.900 2106411.600
N_2176062501_1348094 276216.374 2106570.227
N_2176062502_70f6b82 276221.200 2106535.600
N_2176062601_b2b119f 276209.300 2106626.900
N_2176062602_e740af5 276210.480 2106659.765
N_2176062701_fa072a5 276215.700 2106711.300
N_2176062702_c4f6951 276251.400 2106732.100
N_2176062703_7122c9a 276269.910 2106737.513
N_2176062704_9741199 276288.300 2106743.600
N_2176063701_a1618b9 276308.571 2106751.938
N_2176063702_3be2fc7 276326.823 2106758.814
N_2176063703_1be4373 276360.957 2106773.238
N_2176063704_775cddb 276385.300 2106783.800
N_2176064701_afda901 276469.433 2106789.498
N_2176064702_a1a9999 276485.595 2106788.905
N_2176064901_47c9ed8 276425.700 2106970.800
N_2176065701_c1965df 276500.557 2106789.529
N_2176065702_b79695c 276511.258 2106792.805
N_2176065703_b5535ba 276523.843 2106798.056
N_2176065801_d107ce8 276541.690 2106803.693
N_2176065802_13e3e72 276561.256 2106811.068
N_2176065803_6629340 276577.500 2106816.600
N_2176065804_ab9d2de 276596.457 2106822.845
N_2176066801_a9f0cee 276612.533 2106828.482
N_2176066802_84c7b2e 276626.889 2106833.270
N_2176066803_4b7e9a2 276642.965 2106838.482
N_2176066804_fb178b2 276658.600 2106842.800
N_2176066805_6157baf 276679.718 2106850.521
N_2176066806_595e419 276694.909 2106858.840
N_2176067801_ceca137 276709.876 2106863.464
N_2176067802_80a07c6 276723.200 2106869.000
N_2176067803_0f7a9cf 276742.520 2106874.314
N_2176067804_9f48877 276758.154 2106880.415
N_2176067805_575daaf 276772.067 2106884.315
N_2176067806_81ee606 276794.000 2106890.900
N_2176068001_12ef030 276816.283 2106015.336
N_2176068002_05df1e3 276823.892 2106033.797
N_2176068003_4977a66 276830.668 2106052.888
N_2176068004_d9ea75b 276836.755 2106072.137
N_2176068005_f02bc71 276843.440 2106091.138
N_2176068801_36150ca 276832.350 2106896.093
N_2176068802_fd96972 276856.582 2106891.392
N_2176068803_6e640bb 276878.997 2106885.627
N_2176068804_82bd3e4 276899.006 2106884.315
N_2176069601_b77b053 276966.220 2106685.909
N_2176069801_ac17bbe 276919.900 2106883.000
N_2176069802_afd7274 276940.900 2106881.300
N_2176069803_fb5d07d 276940.800 2106896.200
N_2176069804_b870dab 276942.000 2106881.200
N_2176069901_8ad8c27 276989.600 2106905.400
N_2176070701_7698600 276022.500 2107706.100
N_2176070702_2c768db 276050.815 2107716.594
N_2176070703_7ed92a9 276064.286 2107720.242
N_2176070706_439516e 276078.891 2107725.268
N_2176071701_9f759a2 276106.500 2107735.800
N_2176071702_59a7195 276135.200 2107746.500
N_2176071703_4e2b333 276165.200 2107757.700
N_2176071704_56ea7ff 276179.064 2107762.458
N_2176071706_8cf3f63 276192.070 2107765.659
N_2176072702_71463f0 276247.800 2107786.900
N_2176072703_95ff69c 276276.300 2107796.700
N_2176072704_1014117 276220.100 2107775.900
N_2176073801_a5dacee 276304.579 2107806.739
N_2176073802_480cb59 276332.655 2107817.014
N_2176073804_1c0ec4a 276360.935 2107827.288
N_2176073806_afc4d43 276388.778 2107837.562
N_2176074802_098b0d7 276417.524 2107846.684
N_2176074803_6da0216 276445.833 2107856.046
N_2176075801_0e27744 276501.957 2107877.042
N_2176075802_7265b2c 276530.000 2107887.300
N_2176075803_5ac6f74 276558.313 2107898.038
N_2176075903_0daf1a9 276585.924 2107908.313
N_2176076405_855a85a 276686.900 2107481.800
N_2176076406_b2ebf2d 276695.500 2107486.900
N_2176076502_fa0a3e2 276685.844 2107555.807
N_2176076503_0b84ac4 276691.911 2107526.464
N_2176076504_7a3d2d5 276677.100 2107584.400
N_2176076601_c2ace87 276640.946 2107697.959
N_2176076602_0e22cfc 276647.753 2107669.272
N_2176076603_5ddb875 276658.905 2107641.338
N_2176076604_4fe3efd 276669.187 2107613.403
N_2176076701_cdfd89d 276645.701 2107727.629
N_2176076702_a8b10b0 276650.036 2107757.299
N_2176076703_3624306 276663.781 2107783.609
N_2176076801_2040d1c 276686.197 2107803.201
N_2176076901_080c371 276614.700 2107919.000
N_2176076903_c0208e6 276643.574 2107929.090
N_2176076904_e004631 276672.568 2107997.374
N_2176076905_102610e 276678.939 2107968.152
N_2176076906_b00b0bf 276685.508 2107945.173
N_2176077401_cbaa31a 276703.200 2107438.300
N_2176077402_4ab1840 276727.436 2107473.206
N_2176077403_ba46831 276746.484 2107482.037
N_2176077404_cc86d7a 276776.300 2107483.000
N_2176077405_2183818 276711.500 2107476.300
N_2176077501_5d6942d 276789.276 2107544.843
N_2176077801_979487f 276703.903 2107827.030
N_2176077802_4bbca12 276708.183 2107883.659
N_2176077803_6f69ff8 276710.740 2107873.600
N_2176077804_c3089fd 276711.239 2107842.254
N_2176077805_efd02c4 276712.297 2107863.524
N_2176077901_6701e34 276702.005 2107902.282
N_2176078101_04d4bc8 276865.995 2107176.634
N_2176078201_b11df1e 276857.500 2107234.200
N_2176078301_e7380d7 276879.700 2107312.300
N_2176078302_15fd831 276889.242 2107345.300
N_2176078401_976353a 276830.447 2107447.931
N_2176078501_8f8137c 276817.076 2107591.759
N_2176078601_7dc6874 276856.504 2107656.079
N_2176078701_ebf4faf 276891.210 2107714.634
N_2176079001_9dee874 276904.793 2107043.648
N_2176079701_c6a9413 276921.017 2107762.739
N_2176079801_5d131b6 276945.925 2107805.007
N_2176079802_c985136 276985.884 2107855.418
N_2176086001_5cc4aa8 276673.533 2108028.098
N_2176086002_fda466c 276673.974 2108081.576
N_2176086003_11b71e7 276674.372 2108057.850
N_2176086004_94a18e3 276675.497 2108098.687
N_2176086101_a38cf1c 276656.214 2108175.115
N_2176086102_931c4ca 276662.932 2108145.885
N_2176086103_2bf23f1 276671.161 2108116.974
N_2176086201_8b05bc4 276641.708 2108293.899
N_2176086202_7ddaa94 276642.689 2108264.013
N_2176086203_2aca2bf 276645.933 2108234.023
N_2176086204_da92bfd 276650.378 2108204.465
N_2176086301_5cf361c 276642.358 2108323.890
N_2176086302_6929b9d 276645.613 2108353.448
N_2176086303_526c342 276656.115 2108381.814
N_2176086401_7b3c66b 276674.515 2108404.549
N_2176086402_36a0b7d 276696.379 2108425.124
N_2176087401_b77efbf 276716.633 2108447.211
N_2176087402_64d4229 276734.272 2108471.465
N_2176087403_6b00b44 276755.816 2108491.928
N_2176087501_49b2d2f 276780.494 2108509.143
N_2176088501_5b69f30 276804.090 2108527.557
N_2176088502_f037251 276827.587 2108546.396
N_2176088503_630d152 276851.403 2108564.371
N_2176088504_b93cbf9 276875.110 2108582.666
N_2176088601_6c16cc9 276896.974 2108603.345
N_2176088701_ba542e6 276898.901 2108790.077
N_2176088801_16b37d2 276866.168 2108880.574
N_2176088802_b897a7c 276880.992 2108837.697
N_2176088901_cc3f2c4 276840.399 2108964.840
N_2176088902_9d88842 276852.800 2108922.700
N_2176089501_b82b51d 276982.202 2108582.730
N_2176089502_d486bff 276992.648 2108555.108
N_2176089601_de68ff6 276906.505 2108613.737
N_2176089602_aacd635 276922.789 2108631.855
N_2176089603_14ce85c 276939.495 2108685.535
N_2176089604_e6fe023 276940.824 2108642.647
N_2176089605_6d3dd75 276957.150 2108648.277
N_2176089606_ee5b708 276968.737 2108652.153
N_2176089607_0e1f936 276971.993 2108610.352
N_2176089608_b89c783 276997.715 2108660.706
N_2176089701_d08f7d5 276922.282 2108729.203
N_2176098001_d21d76b 276837.200 2109001.500
N_2176099901_2949adf 276967.311 2109929.708
N_2176099902_e02183a 276989.656 2109907.352
N_2176100101_86867d6 276006.145 2110197.755
N_2176100102_06bd050 276064.339 2110127.064
N_2176100501_68ba9bb 276031.600 2110580.000
N_2176100601_c83b4ac 276008.300 2110603.803
N_2176101101_c5fc24d 276120.556 2110151.094
N_2176101102_5f7c28b 276134.021 2110157.320
N_2176104901_f0e105d 276402.960 2110994.592
N_2176104902_7b6f65e 276429.830 2110982.022
N_2176104903_4f133c9 276457.500 2110969.000
N_2176104904_16543be 276484.106 2110955.233
N_2176105901_8e4a718 276523.100 2110934.100
N_2176106601_62e551d 276672.100 2110600.000
N_2176106602_0cbc3ed 276681.500 2110612.600
N_2176106603_7914d1d 276694.700 2110629.700
N_2176106801_bf8d0f2 276689.800 2110853.800
N_2176107601_d6fa215 276712.000 2110654.100
N_2176107602_79bd1fd 276729.900 2110678.600
N_2176107701_5656f59 276747.200 2110700.300
N_2176107702_f4322de 276769.600 2110728.600
N_2176107703_a7eae3f 276792.500 2110760.200
N_2176107801_5ebb080 276732.050 2110831.626
N_2176107802_5df2a96 276765.064 2110816.868
N_2176107803_de2325d 276786.748 2110811.579
N_2176108701_1a50e7b 276821.285 2110792.285
N_2176108702_ff256e8 276830.138 2110785.494
N_2176108703_1fbd9f6 276848.509 2110772.085
N_2176108704_c75aa23 276882.956 2110778.216
N_2176108801_13055e7 276804.424 2110804.698
N_2176109301_1b777ce 276965.700 2110347.500
N_2176109302_d044bf7 276981.200 2110347.900
N_2176109701_6ea9712 276909.354 2110782.970
N_2176109702_db64615 276927.729 2110761.741
N_2176109703_e06719e 276949.159 2110768.613
N_2176109704_37204f3 276961.503 2110774.943
N_2176109705_986ab9b 276984.630 2110775.899
N_2176110101_1396580 276002.000 2111198.600
N_2176110102_725ef23 276028.700 2111185.000
N_2176110103_9204856 276055.300 2111171.400
N_2176110104_d45c905 276082.500 2111157.900
N_2176111101_fdfd591 276109.100 2111144.400
N_2176111102_2a3a20a 276135.882 2111130.819
N_2176111103_e31c0f7 276162.538 2111117.370
N_2176111104_5a89744 276189.071 2111103.550
N_2176112001_f55e30e 276215.818 2111089.993
N_2176112002_e3b4138 276242.597 2111076.544
N_2176112003_97b7378 276269.500 2111062.900
N_2176112004_d6c7dcd 276296.153 2111049.393
N_2176113001_945c73d 276322.870 2111035.790
N_2176113002_7898d2d 276349.893 2111021.852
N_2176113003_3eb6d2f 276376.181 2111008.159
N_2176118001_39083b9 276842.200 2111022.100
N_2176118002_c84bbff 276848.100 2111023.700
N_2176118003_eb21573 276853.900 2111025.600
N_2176118004_79d834f 276890.400 2111038.300
N_2176118501_30ef276 276804.875 2111587.556
N_2176118502_221d21f 276849.769 2111573.029
N_2176118503_c10c827 276880.527 2111591.712
N_2176119001_348a82b 276915.300 2111041.000
N_2176119002_4416c31 276965.199 2111048.485
N_2176119003_60c6537 276987.600 2111051.400
N_2176130101_ba6da88 276001.100 2113167.700
N_2176130102_2822836 276026.900 2113189.800
N_2176130103_c1949a0 276037.400 2113199.000
N_2176130201_c4188f5 276047.500 2113206.200
N_2176130202_1a581c1 276072.500 2113223.000
N_2176130203_eeb7ea3 276097.400 2113239.800
N_2176130501_a1227c3 276003.000 2113573.700
N_2176130502_8c070fe 276046.100 2113572.900
N_2176130503_452770a 276076.000 2113572.800
N_2176130701_0076b2d 276081.759 2113792.534
N_2176130702_c8ece54 276099.067 2113782.374
N_2176130801_9a83715 276006.745 2113836.700
N_2176130802_29bab27 276030.791 2113822.528
N_2176130803_4f3f40e 276056.986 2113806.697
N_2176131201_a64d234 276122.400 2113256.500
N_2176131202_acd41d8 276147.100 2113273.100
N_2176131203_e017ed3 276160.100 2113277.200
N_2176131301_61cf757 276158.400 2113310.800
N_2176131302_75eac93 276185.200 2113321.900
N_2176131303_e446ce9 276197.300 2113374.000
N_2176131401_6b4734c 276197.300 2113415.800
N_2176131402_15a1f81 276197.300 2113470.700
N_2176131501_d285c62 276106.000 2113572.700
N_2176131502_c3027c3 276136.000 2113572.500
N_2176131503_fb3a5ab 276161.000 2113572.500
N_2176131504_2c93a56 276182.287 2113560.891
N_2176131505_7164a1f 276195.189 2113589.459
N_2176131506_e4e38d8 276195.803 2113554.440
N_2176131507_44800c2 276196.400 2113532.100
N_2176131601_6bf0eba 276184.800 2113628.300
N_2176131602_3035824 276192.900 2113611.000
N_2176131603_e834855 276194.100 2113658.600
N_2176131701_1a81b41 276105.612 2113778.452
N_2176131702_f236e1b 276133.843 2113762.262
N_2176131703_1d9f74f 276159.327 2113746.789
N_2176131704_a571d93 276185.264 2113731.415
N_2176131705_2ec3f7a 276199.365 2113722.149
N_2176132301_502d42d 276210.400 2113348.900
N_2176132302_62f2eb8 276234.500 2113338.600
N_2176132303_7ff8ed6 276281.900 2113339.600
N_2176132701_615865b 276209.336 2113714.763
N_2176132702_9f14e6b 276241.463 2113721.779
N_2176132703_f9906fc 276285.776 2113734.704
N_2176133301_6cb46a1 276308.900 2113338.600
N_2176133302_ec5b2fd 276339.600 2113341.400
N_2176133303_4d6759f 276365.700 2113342.300
N_2176133701_4123d4a 276328.981 2113746.151
N_2176133702_6cd9a43 276367.385 2113757.968
N_2176133703_fc837ad 276367.700 2113787.700
N_2176133704_461857b 276367.754 2113770.893
N_2176133801_9ae8ccc 276367.800 2113818.000
N_2176133802_5e5fe62 276369.800 2113848.200
N_2176133803_f147ae9 276376.100 2113876.900
N_2176133804_aeb77f0 276393.000 2113894.300
N_2176134301_78da050 276435.400 2113344.200
N_2176134302_1debad7 276464.300 2113343.300
N_2176134303_627dcda 276492.200 2113338.600
N_2176134801_26ac245 276420.700 2113882.400
N_2176134802_47f645a 276443.100 2113866.600
N_2176134803_ff759e0 276463.000 2113891.400
N_2176134901_bedf0cf 276477.200 2113915.800
N_2176134902_47db87b 276492.200 2113941.700
N_2176135301_3818e4c 276522.869 2113337.694
N_2176135302_3ee42e5 276557.287 2113338.624
N_2176135303_3e48c18 276589.700 2113341.100
N_2176135901_234a18c 276507.400 2113967.600
N_2176135902_a371e8e 276528.000 2113989.100
N_2176136201_9df6c3b 276688.400 2113298.600
N_2176136301_f84c857 276622.000 2113327.400
N_2176136302_a4eeff6 276633.200 2113321.800
N_2176136303_fcc30a4 276660.600 2113310.000
N_2176137201_2488f74 276716.000 2113287.000
N_2176137202_918d79b 276743.500 2113275.300
N_2176137203_388a2a9 276771.300 2113263.700
N_2176137204_9a9e42b 276799.200 2113252.200
N_2176138201_3b912ef 276826.400 2113239.800
N_2176138202_dce6190 276856.227 2113225.260
N_2176138203_88f3c46 276864.772 2113213.043
N_2176140401_886fc71 276090.900 2114494.800
N_2176140501_ab282ba 276003.800 2114525.200
N_2176140502_4999530 276028.600 2114517.200
N_2176141601_577c7c3 276178.100 2114634.400
N_2176141901_e65e429 276116.100 2114966.700
N_2176141902_96b3244 276120.900 2114927.000
N_2176142701_d4bdfd3 276248.200 2114753.600
N_2176142901_64788fa 276200.400 2114903.100
N_2176143801_ef91349 276317.700 2114871.800
N_2176145001_73a5b1f 276533.100 2114094.909
N_2176145002_abfcad7 276535.564 2114075.609
N_2176145003_a10c01e 276537.891 2114064.839
N_2176145004_2c26ee4 276543.862 2114012.272
N_2176145005_1b6f231 276545.567 2114047.813
N_2176145101_f2db154 276546.666 2114126.690
N_2176145102_8df2215 276558.310 2114154.579
N_2176145103_cb6655d 276568.700 2114183.100
N_2176145104_599560a 276592.500 2114188.900
N_2176145301_e7072ba 276587.200 2114394.200
N_2176145302_c5ab9fa 276590.500 2114364.300
N_2176145401_08f44e1 276576.279 2114451.583
N_2176145402_12450a3 276583.632 2114424.030
N_2176145403_d78e2f6 276587.236 2114478.840
N_2176145501_35bd8a0 276554.500 2114588.600
N_2176145502_8088bea 276557.900 2114558.500
N_2176145503_49199a3 276561.364 2114529.934
N_2176145504_b5f26f2 276586.250 2114514.336
N_2176145603_b46da0b 276565.800 2114614.800
N_2176145604_3babfdd 276591.500 2114639.700
N_2176145605_683c813 276594.200 2114643.900
N_2176146201_3463897 276603.600 2114219.800
N_2176146202_f5ee4e4 276631.200 2114237.100
N_2176146203_5a9bafe 276647.100 2114279.600
N_2176146204_1ac573a 276648.600 2114294.800
N_2176146301_9a2dd11 276614.417 2114353.819
N_2176146302_a1d2345 276644.000 2114348.100
N_2176146303_b236e9e 276652.400 2114322.900
N_2176146304_63b1bbe 276653.600 2114341.100
N_2176146601_aad2494 276607.000 2114661.400
N_2176146602_8ea629a 276614.000 2114670.600
N_2176146603_90b2b48 276616.500 2114675.200
N_2176146604_bc092af 276623.127 2114681.288
N_2176146605_7a746de 276656.174 2114694.786
N_2176146701_b94bc72 276682.400 2114702.500
N_2176146702_3b6c548 276689.800 2114731.900
N_2176147701_bab95b6 276701.000 2114762.100
N_2176147702_1d221c9 276720.600 2114767.700
N_2176147703_287f862 276746.300 2114779.500
N_2176147801_4802fb0 276756.800 2114816.000
N_2176147802_1f680d9 276760.000 2114853.300
N_2176147803_5c32444 276777.900 2114872.500
N_2176147804_66a4857 276791.100 2114898.900
N_2176147901_9d9908c 276747.200 2114987.700
N_2176147902_7013b6c 276750.900 2114953.900
N_2176147903_41358e2 276765.600 2114939.900
N_2176156101_cdebd0c 276603.100 2115130.900
N_2176156102_d26e96d 276641.300 2115121.300
N_2176156103_8420126 276687.112 2115111.925
N_2176156201_0a9cbc7 276643.400 2115231.800
N_2176156202_94324b1 276690.400 2115228.800
N_2176156301_a53d86d 276646.300 2115363.600
N_2176156302_0dc072a 276691.900 2115352.100
N_2176157001_e179061 276728.100 2115062.700
N_2176157002_0b32c2b 276733.292 2115028.893
N_2176157101_e04a53b 276738.200 2115101.800
N_2176157401_a0538f4 276712.500 2115474.900
N_2176157402_5121d38 276722.800 2115493.100
N_2176157501_1296131 276765.200 2115558.100
N_2176157601_f1c899a 276725.400 2115601.900
N_2176157602_51bd60c 276742.300 2115689.200
N_2176157603_cece9ea 276751.500 2115652.600
N_2176157604_18819ab 276788.600 2115687.800
N_2176157701_0e04fb2 276796.666 2115750.992
N_2176158701_0fa4e6c 276805.500 2115714.200
N_2176158801_53280ec 276816.591 2115814.230
N_2177054801_f911f67 277459.400 2105879.300
N_2177054802_f36a9d4 277473.100 2105852.600
N_2177054803_3436a23 277486.600 2105825.800
N_2177054804_4999d64 277490.000 2105819.400
N_2177054805_aa8dcee 277495.400 2105808.100
N_2177054901_4d99706 277405.000 2105986.400
N_2177054902_2ca95ae 277418.600 2105959.600
N_2177054903_7daa600 277432.200 2105932.800
N_2177054904_dde8c17 277445.800 2105906.100
N_2177055701_dd20055 277500.100 2105799.100
N_2177055702_5c56695 277513.800 2105772.400
N_2177055703_1aac109 277528.262 2105746.286
N_2177055704_4550459 277538.700 2105739.800
N_2177055705_0245413 277557.100 2105745.200
N_2177055706_9f01a26 277583.600 2105759.200
N_2177056701_765798f 277610.109 2105773.242
N_2177056702_032f1e3 277636.693 2105787.158
N_2177056703_f5da5bd 277651.807 2105795.253
N_2177056704_1f6448f 277658.700 2105798.800
N_2177056801_a147267 277663.123 2105801.291
N_2177056802_a6803ca 277689.668 2105815.307
N_2177057801_cfc8b9f 277716.177 2105829.339
N_2177057802_e071dbb 277742.651 2105843.480
N_2177057803_93953ce 277769.139 2105857.426
N_2177057804_3489f13 277795.687 2105871.569
N_2177058801_323ce0b 277816.086 2105882.158
N_2177058802_a6f7f75 277822.453 2105885.013
N_2177058803_e73b116 277840.352 2105894.810
N_2177058804_158dced 277849.033 2105899.040
N_2177058901_618378e 277875.837 2105912.479
N_2177059901_e7b6b3c 277902.598 2105925.998
N_2177059902_fd82b84 277929.288 2105939.697
N_2177059903_a071a2a 277956.014 2105953.252
N_2177059904_16f036b 277982.744 2105966.807
N_2177060001_92ea60d 277015.500 2106093.100
N_2177060002_0f96e68 277054.100 2106084.700
N_2177060003_e143a4f 277083.600 2106078.800
N_2177060201_f04462e 277040.040 2106274.521
N_2177060401_8830ab5 277009.009 2106415.572
N_2177060901_a9973cb 277016.672 2106917.049
N_2177060902_71e4e41 277044.378 2106928.659
N_2177060903_ce9f6d2 277069.500 2106940.300
N_2177060904_b568669 277094.669 2106956.344
N_2177061001_c6c41f4 277113.000 2106072.800
N_2177061002_b1d73b9 277142.400 2106067.100
N_2177061003_21da1e4 277171.900 2106061.100
N_2177061901_85bf590 277135.987 2106976.658
N_2177061902_ebebde1 277165.680 2106991.232
N_2177061903_c3d2702 277185.719 2106999.429
N_2177062001_6245582 277201.300 2106055.600
N_2177062002_e858a64 277230.800 2106050.100
N_2177062003_e27e116 277260.300 2106044.900
N_2177062004_953abe7 277289.800 2106039.200
N_2177062005_ed543f0 277294.700 2106039.000
N_2177063001_01b46e5 277317.400 2106049.100
N_2177063002_56a2402 277342.300 2106065.800
N_2177063003_4e7ee69 277360.000 2106074.000
N_2177063004_2bc32e2 277366.400 2106067.000
N_2177063005_b215e2e 277366.900 2106062.400
N_2177063006_1389090 277368.500 2106058.100
N_2177063007_9bc04e3 277371.000 2106053.200
N_2177063008_2f1c92e 277374.000 2106078.600
N_2177063009_8cd9c80 277377.800 2106039.800
N_2177063010_6305701 277391.400 2106013.100
N_2177063011_62e65cb 277392.159 2106084.470
N_2177064001_86ad72e 277415.440 2106096.279
N_2177064101_3765e0d 277433.585 2106105.865
N_2177064102_ca7facb 277460.735 2106120.670
N_2177065101_9adfff3 277512.310 2106145.950
N_2177065102_3edf65a 277536.634 2106158.323
N_2177065103_51d40cf 277573.518 2106172.715
N_2177066101_e08cc53 277617.130 2106176.492
N_2177066102_51dd0ce 277683.811 2106194.827
N_2177067201_4ce89ff 277749.774 2106226.659
N_2177067801_5701e8f 277796.300 2106882.500
N_2177067901_3fd470f 277738.700 2106996.200
N_2177067902_133db61 277753.975 2106965.239
N_2177067903_e5621c1 277767.109 2106938.657
N_2177067904_fe4f23c 277781.338 2106910.200
N_2177068201_1cb161d 277823.541 2106265.004
N_2177068701_00a7d32 277841.200 2106798.600
N_2177068702_e8a798e 277868.300 2106795.300
N_2177068703_7320a0f 277895.995 2106792.788
N_2177068801_35050e1 277810.700 2106854.800
N_2177068802_71684fe 277826.500 2106828.400
N_2177068803_71e3663 277892.800 2106803.100
N_2177069301_ad6f30a 277900.001 2106303.844
N_2177069302_4a07e12 277961.321 2106333.911
N_2177069303_5241e8e 277984.826 2106344.932
N_2177069401_0f1934e 277994.300 2106427.000
N_2177069601_2c8cb24 277951.741 2106687.276
N_2177069602_dd2c2b9 277963.837 2106659.005
N_2177069603_05f1fed 277976.205 2106633.181
N_2177069604_ac7785d 277989.525 2106605.047
N_2177069701_d32b385 277908.112 2106766.242
N_2177069702_5f9d985 277921.704 2106739.331
N_2177069703_7e72608 277936.654 2106713.643
N_2177069801_fada290 277904.277 2106807.198
N_2177069802_1beb8d3 277918.663 2106814.206
N_2177069803_4f97634 277940.982 2106824.842
N_2177069804_0bc9589 277945.987 2106826.296
N_2177069805_f80ceb5 277963.055 2106828.663
N_2177069806_462c354 277975.566 2106825.848
N_2177069901_2748b26 277984.900 2106905.400
N_2177069902_c5350be 277988.104 2106965.725
N_2177070801_bc99210 277016.104 2107893.073
N_2177070901_e3253c5 277057.253 2107947.700
N_2177070902_2907d4e 277081.030 2107979.987
N_2177070903_ca91bbb 277067.500 2107961.700
N_2177072001_8a2deaf 277204.860 2107009.846
N_2177072002_373606c 277243.057 2107031.506
N_2177072003_e23ead0 277253.300 2107037.400
N_2177072004_6a8a756 277282.200 2107049.100
N_2177073001_6e49176 277307.616 2107065.560
N_2177073002_dfb9525 277334.024 2107080.072
N_2177073003_58536dc 277360.152 2107094.889
N_2177073101_b4182e4 277393.328 2107106.803
N_2177074101_c4395d2 277422.100 2107121.900
N_2177074102_521ca19 277448.100 2107136.400
N_2177074103_7bca6b3 277476.200 2107149.000
N_2177075101_ed7dd04 277504.200 2107160.900
N_2177075102_8741c74 277530.300 2107174.500
N_2177075103_f3e2e9e 277557.197 2107188.480
N_2177075201_9c11b90 277584.088 2107202.381
N_2177076001_604e59a 277693.619 2107081.885
N_2177076101_6f6bfce 277637.485 2107193.371
N_2177076102_84afe60 277650.463 2107168.353
N_2177076103_2e69943 277654.998 2107158.034
N_2177076104_517b4ab 277665.005 2107135.986
N_2177076105_030a9a7 277677.983 2107111.750
N_2177076106_fdc779f 277685.270 2107170.249
N_2177076201_454b893 277626.019 2107219.017
N_2177077001_2ac98b0 277706.597 2107056.711
N_2177077002_3f07c8f 277721.139 2107030.129
N_2177077101_9205beb 277710.963 2107182.412
N_2177077102_0b16b20 277736.992 2107195.109
N_2177077201_986bf33 277731.600 2107271.800
N_2177077202_77c7061 277765.403 2107211.457
N_2177077203_0c394fe 277775.500 2107230.900
N_2177077204_9a0ac7c 277795.936 2107252.938
N_2177077301_a048076 277710.500 2107370.200
N_2177077302_5f5b20f 277710.600 2107321.300
N_2177077401_d5406a8 277743.600 2107423.800
N_2177078201_ad2a7bd 277816.214 2107275.008
N_2177078202_6615d01 277836.501 2107297.122
N_2177078301_6caa918 277856.800 2107319.100
N_2177078302_59c34c1 277877.100 2107341.300
N_2177078303_e92af4a 277897.400 2107363.423
N_2177079001_c132bd7 277982.300 2107014.900
N_2177079301_cc0bc64 277917.327 2107385.852
N_2177079401_86bf3d9 277932.339 2107400.908
N_2177079402_24cc14b 277939.753 2107405.373
N_2177079403_ef6d604 277966.248 2107419.318
N_2177079404_1a7a6ff 277992.967 2107432.987
N_2177080201_f51465d 277097.746 2108274.224
N_2177080301_b6e9bb1 277053.934 2108385.648
N_2177080302_fca8c8c 277065.061 2108357.799
N_2177080303_228133f 277076.158 2108329.941
N_2177080304_f17e8e9 277086.944 2108301.846
N_2177080401_138596b 277008.895 2108497.081
N_2177080402_969d5bf 277020.258 2108468.741
N_2177080403_c12370f 277031.651 2108440.664
N_2177080404_6b7dc29 277042.541 2108413.498
N_2177080501_1878b33 277001.940 2108526.331
N_2177080601_1876fb5 277025.479 2108672.093
N_2177080602_01295a7 277051.235 2108687.183
N_2177080701_b026bd4 277076.794 2108702.474
N_2177081001_9057848 277112.843 2108023.984
N_2177081002_49fb9b9 277130.403 2108013.967
N_2177081004_3a9e39a 277137.700 2108016.600
N_2177081102_5cf7c24 277137.769 2108193.433
N_2177081103_fb1b7a9 277151.234 2108163.606
N_2177081104_7add54d 277172.405 2108162.046
N_2177081105_af81b71 277199.100 2108151.700
N_2177081201_3a10dd6 277110.160 2108246.471
N_2177081202_94efd71 277116.000 2108235.000
N_2177081203_3bd1b62 277130.600 2108206.600
N_2177081701_03b374c 277102.986 2108717.466
N_2177081702_4166f45 277128.117 2108733.401
N_2177081703_59085ff 277148.314 2108749.244
N_2177081704_21cc03f 277150.697 2108750.813
N_2177081705_fcbc628 277152.103 2108751.896
N_2177081706_d337653 277176.378 2108769.387
N_2177082101_c7a6565 277247.156 2108170.110
N_2177082103_9b733fd 277285.499 2108187.406
N_2177082701_64b66c6 277200.625 2108786.922
N_2177082801_096d134 277225.203 2108804.249
N_2177082802_334ad4a 277250.126 2108820.819
N_2177082803_15f6564 277261.531 2108828.339
N_2177082804_c9609fd 277262.665 2108830.164
N_2177082805_fe77774 277274.017 2108838.679
N_2177082806_e66ae24 277297.833 2108856.974
N_2177083201_8dbe169 277311.959 2108200.907
N_2177083202_5818340 277337.320 2108211.688
N_2177083203_27a0b33 277365.926 2108226.801
N_2177083801_8b81126 277320.348 2108876.566
N_2177083802_b175fca 277345.467 2108893.021
N_2177083901_df49852 277359.003 2108904.932
N_2177083902_e1c164f 277381.087 2108919.555
N_2177083903_9107fc5 277393.420 2108928.754
N_2177084201_ee258db 277400.473 2108258.135
N_2177084301_576c3b2 277488.500 2108325.700
N_2177084901_074b6fd 277417.348 2108946.841
N_2177084902_d94269e 277440.845 2108965.352
N_2177084903_9e27641 277464.441 2108984.079
N_2177084904_5f783a0 277477.102 2108993.427
N_2177086401_2cab1c9 277629.100 2108435.600
N_2177087501_256cef5 277785.100 2108554.300
N_2177090701_c78889e 277096.258 2109790.703
N_2177090801_a03e9cd 277011.564 2109883.843
N_2177090802_e63eda5 277032.105 2109860.334
N_2177090803_0c0163c 277053.344 2109836.585
N_2177090804_3926b73 277074.787 2109813.076
N_2177091701_f8d8535 277118.370 2109767.418
N_2177091702_216f270 277140.511 2109742.997
N_2177091703_d24dcd8 277163.794 2109716.178
N_2177091704_fe7e7bb 277168.384 2109705.557
N_2177091705_d1617c1 277171.700 2109718.800
N_2177091706_6f3aa83 277177.287 2109713.496
N_2177091707_90d4e49 277180.718 2109709.562
N_2177091708_ddc81f7 277184.100 2109733.500
N_2177092401_7537805 277281.897 2109472.508
N_2177092402_243058d 277293.884 2109443.518
N_2177092403_56b2017 277295.179 2109480.752
N_2177092501_2349ecf 277225.657 2109572.369
N_2177092502_2f895c9 277237.612 2109587.580
N_2177092503_6be653c 277238.715 2109581.848
N_2177092504_8230f1d 277246.532 2109560.847
N_2177092505_1a93b0e 277249.732 2109573.313
N_2177092506_19523b1 277257.821 2109531.168
N_2177092507_3af6afc 277262.491 2109558.248
N_2177092508_5db4028 277270.026 2109502.066
N_2177092509_cc8854c 277271.277 2109538.276
N_2177092510_94dd35a 277282.799 2109508.494
N_2177092601_ea8b11d 277220.549 2109635.574
N_2177092602_52de2da 277222.939 2109629.202
N_2177092603_785def3 277225.966 2109621.714
N_2177092604_851daf0 277229.789 2109611.200
N_2177092605_16251bd 277233.612 2109600.207
N_2177092701_4852727 277205.800 2109752.400
N_2177092702_bd96f6f 277222.093 2109774.715
N_2177092703_f1a5c78 277242.400 2109797.000
N_2177092801_86305a3 277264.500 2109817.500
N_2177092802_898131b 277284.617 2109836.335
N_2177093201_3ab5395 277351.288 2109296.054
N_2177093202_0896db6 277363.275 2109266.608
N_2177093203_9ee3ff8 277376.047 2109237.962
N_2177093204_8d88be0 277380.251 2109273.475
N_2177093205_4c6da54 277388.136 2109208.284
N_2177093206_5271db0 277392.820 2109244.958
N_2177093301_7e1f41d 277318.091 2109384.840
N_2177093302_82f871a 277329.728 2109355.515
N_2177093303_dbbce9e 277332.362 2109391.277
N_2177093304_60c95e3 277339.199 2109325.268
N_2177093305_a23fae7 277344.930 2109361.607
N_2177093306_2f411fd 277356.539 2109332.591
N_2177093307_b45f7a6 277368.846 2109302.697
N_2177093401_3ff6c52 277306.322 2109413.960
N_2177093402_4539834 277307.515 2109449.929
N_2177093403_0a3ea9e 277320.055 2109420.035
N_2177093801_95fa9d0 277310.279 2109855.851
N_2177093802_d5be7f7 277336.988 2109875.255
N_2177093803_f805fc0 277363.566 2109884.729
N_2177093901_2c0b24c 277387.641 2109902.989
N_2177094001_e8a5c01 277436.491 2109091.075
N_2177094002_aa79fe8 277448.711 2109061.818
N_2177094003_030a6aa 277452.610 2109098.639
N_2177094004_a42d5f2 277460.582 2109032.596
N_2177094005_b652a95 277465.179 2109069.193
N_2177094006_d6e5aa3 277472.656 2109003.614
N_2177094007_d0de870 277478.649 2109037.699
N_2177094008_6649d12 277488.257 2109001.950
N_2177094101_80e3ed2 277400.341 2109179.182
N_2177094102_4c5bbb1 277412.430 2109149.968
N_2177094103_5995f02 277416.561 2109185.377
N_2177094104_760fa1c 277422.686 2109124.746
N_2177094105_423d753 277425.232 2109168.030
N_2177094106_be33b25 277429.872 2109105.454
N_2177094107_98d3ad2 277435.735 2109145.657
N_2177094108_f3bb636 277441.437 2109127.638
N_2177094201_3badce6 277404.894 2109215.271
N_2177094901_292316a 277410.815 2109921.705
N_2177094902_6769a99 277434.993 2109938.820
N_2177094903_b2c83fb 277458.720 2109957.424
N_2177094904_deb6194 277481.079 2109973.972
N_2177094905_fa3be18 277493.300 2109984.200
N_2177095001_58bb755 277513.387 2109018.085
N_2177095002_1bd93e1 277539.256 2109033.244
N_2177095003_94f6d2d 277548.192 2109037.486
N_2177095004_1958e3d 277551.102 2109038.966
N_2177095005_1aff641 277558.907 2109054.238
N_2177095006_5ded0ad 277559.300 2109043.800
N_2177095007_b320744 277570.111 2109079.041
N_2177095101_210555a 277589.923 2109101.448
N_2177095901_929e16c 277587.800 2109998.200
N_2177095901_2ede70d 277587.800 2109998.200
N_2177095902_8420168 277595.902 2109988.167
N_2177095902_44a1bb7 277595.902 2109988.167
N_2177096101_b5ff73c 277608.875 2109124.623
N_2177096102_cd846ff 277627.705 2109148.013
N_2177096103_83909cb 277646.547 2109171.396
N_2177096104_f722e4d 277664.087 2109195.650
N_2177096201_1916d31 277678.163 2109222.065
N_2177096202_ea9dd86 277690.937 2109249.240
N_2177096801_ef33f7f 277663.888 2109897.764
N_2177096801_83984aa 277663.888 2109897.764
N_2177096802_1b47f1b 277665.411 2109896.252
N_2177096802_5dbef54 277665.411 2109896.252
N_2177096803_1c6ad1c 277668.334 2109892.676
N_2177096803_40979a1 277668.334 2109892.676
N_2177096804_9493838 277689.548 2109871.670
N_2177096804_fcb6408 277689.548 2109871.670
N_2177096805_964141a 277695.750 2109865.506
N_2177096805_5fe1293 277695.750 2109865.506
N_2177096901_78625d1 277604.341 2109977.559
N_2177096901_e7f0778 277604.341 2109977.559
N_2177096902_00735fc 277620.039 2109957.208
N_2177096902_961b653 277620.039 2109957.208
N_2177096903_4f2442c 277631.633 2109940.098
N_2177096903_3af60f3 277631.633 2109940.098
N_2177096904_682a880 277642.700 2109956.400
N_2177096904_63ca0a9 277642.700 2109956.400
N_2177096905_44a3572 277649.923 2109916.171
N_2177096905_e72db6e 277649.923 2109916.171
N_2177096906_8f7d68e 277659.123 2109904.699
N_2177096906_4909874 277659.123 2109904.699
N_2177096907_6da89ef 277660.855 2109901.772
N_2177096907_6dc5384 277660.855 2109901.772
N_2177097201_b110c05 277704.484 2109276.094
N_2177097301_fc9dea7 277718.339 2109302.516
N_2177097302_c171dd5 277732.746 2109328.938
N_2177097303_761a287 277746.900 2109355.400
N_2177097304_ad7b397 277761.000 2109381.800
N_2177097401_75aee9b 277775.945 2109407.751
N_2177097402_0bbb9be 277789.702 2109434.389
N_2177097601_45f4958 277739.123 2109689.567
N_2177097602_3994b34 277746.591 2109679.176
N_2177097603_305a338 277750.706 2109664.776
N_2177097604_fa31d83 277753.629 2109660.225
N_2177097605_441c25a 277772.029 2109641.930
N_2177097606_1f16c40 277792.162 2109619.739
N_2177097607_179b9d0 277798.218 2109615.187
N_2177097701_ca3e241 277707.827 2109751.060
N_2177097702_db28ef7 277723.094 2109763.403
N_2177097703_b9bd884 277724.396 2109715.438
N_2177097704_d310f8a 277747.341 2109781.162
N_2177097801_4a9094c 277713.200 2109856.600
N_2177097802_b2b7aad 277739.012 2109843.623
N_2177097803_6201663 277762.609 2109825.328
N_2177097804_88b7025 277766.834 2109804.001
N_2177097805_61a30ae 277775.273 2109814.393
N_2177097806_caa1d43 277701.100 2109861.200
N_2177097806_51c2a6a 277701.100 2109861.200
N_2177098401_743a569 277805.572 2109460.367
N_2177098402_0422a60 277810.173 2109474.013
N_2177098403_8e5febd 277812.754 2109481.867
N_2177098404_18f5fd9 277813.900 2109491.700
N_2177098405_b5f0b96 277814.700 2109494.700
N_2177098406_4d04a70 277847.730 2109462.853
N_2177098407_54f3cf9 277871.936 2109456.468
N_2177098501_c1ca854 277816.442 2109501.632
N_2177098502_71305d2 277819.464 2109518.631
N_2177098503_b6210ba 277825.400 2109548.100
N_2177098504_f3c4310 277825.929 2109585.197
N_2177098505_cf9ba04 277826.869 2109555.718
N_2177098506_6639874 277833.838 2109576.645
N_2177098507_1376bc9 277851.977 2109580.604
N_2177098508_10f7ca9 277855.381 2109588.365
N_2177098509_9553f4d 277855.381 2109599.087
N_2177098601_f209ea1 277862.000 2109609.800
N_2177098602_8cf800b 277873.420 2109639.255
N_2177098603_55f7b34 277895.290 2109654.628
N_2177098801_7357535 277803.535 2109839.252
N_2177098802_2a31c7c 277823.406 2109862.520
N_2177098803_506dd33 277843.200 2109885.400
N_2177098902_7586844 277843.307 2109906.595
N_2177099401_398eaa8 277900.900 2109448.300
N_2177099402_40bad5a 277929.900 2109441.200
N_2177099403_3a480cb 277958.638 2109432.736
N_2177099404_5c3783b 277988.100 2109425.000
N_2177099601_cf267db 277924.074 2109664.829
N_2177099602_ee8845d 277953.559 2109661.808
N_2177099603_f43a8c0 277983.467 2109657.899
N_2177100301_bf71906 277001.600 2110340.600
N_2177100302_044deef 277018.400 2110336.600
N_2177100303_e50a4e8 277044.953 2110326.233
N_2177100304_a0625ab 277053.213 2110323.336
N_2177100305_54b0b32 277078.395 2110305.735
N_2177100701_4f372f5 277014.299 2110776.735
N_2177100702_51fee5a 277044.492 2110778.423
N_2177100703_f5aba82 277073.946 2110778.742
N_2177100704_4948111 277098.970 2110766.177
N_2177101201_e4cef8c 277107.346 2110298.438
N_2177101202_588d887 277136.833 2110292.655
N_2177101203_bc9e3b7 277166.636 2110289.542
N_2177101204_b5bfc3f 277196.658 2110287.505
N_2177101701_3dc22d4 277119.230 2110744.001
N_2177101702_b548e19 277122.600 2110740.100
N_2177101703_2922d9b 277131.372 2110729.851
N_2177101704_dc7b6b9 277140.552 2110724.676
N_2177101705_69e6794 277170.400 2110726.300
N_2177102201_64f5a5d 277226.500 2110288.100
N_2177102202_29fef92 277255.900 2110284.600
N_2177102203_c56b30c 277276.300 2110262.900
N_2177102204_06572db 277296.500 2110240.800
N_2177102205_e243afd 277299.100 2110289.000
N_2177102301_49b63df 277277.700 2110371.000
N_2177102302_d3decd7 277283.400 2110346.400
N_2177102303_e0afbda 277291.500 2110321.200
N_2177102304_062af8d 277298.000 2110306.600
N_2177102701_5782a76 277200.400 2110727.500
N_2177102702_0431eb1 277230.400 2110728.800
N_2177102703_df8c1a4 277243.464 2110729.644
N_2177102704_678193c 277250.437 2110735.775
N_2177103001_d0ee2df 277399.719 2110095.793
N_2177103101_d359f68 277336.054 2110195.194
N_2177103102_eefbdb2 277345.600 2110166.900
N_2177103103_98e1c62 277361.000 2110141.700
N_2177103104_2e38ea9 277380.316 2110118.522
N_2177103105_1e237b8 277385.400 2110112.600
N_2177103106_f9c295e 277393.000 2110103.600
N_2177103201_d0d6f6f 277314.083 2110219.802
N_2177103202_d0126be 277320.400 2110212.700
N_2177103203_6c2cdbf 277330.500 2110201.400
N_2177103301_6b45778 277346.506 2110392.094
N_2177103301_3af0ab3 277346.506 2110392.094
N_2177103302_16a3d7b 277395.632 2110379.130
N_2177103302_421f424 277395.632 2110379.130
N_2177104001_865070c 277418.488 2110072.525
N_2177104002_f394e26 277429.734 2110059.001
N_2177104003_96eae12 277438.000 2110049.471
N_2177104004_2b4a089 277446.700 2110038.900
N_2177104005_73d6174 277451.449 2110085.453
N_2177104006_697c07a 277453.800 2110030.200
N_2177104007_0cac3fc 277456.976 2110026.410
N_2177104008_9607697 277473.700 2110007.300
N_2177104009_f9f0a41 277476.300 2110004.400
N_2177104010_d034362 277477.427 2110003.065
N_2177104011_415b676 277495.001 2110016.876
N_2177104101_5163f0f 277470.070 2110108.917
N_2177104102_66f6b16 277478.616 2110151.618
N_2177104103_ef794f7 277478.920 2110136.700
N_2177104104_8fe56ac 277481.709 2110166.026
N_2177104105_59ace02 277483.355 2110195.360
N_2177104201_b804865 277461.126 2110248.051
N_2177104202_a6a80b4 277466.788 2110260.604
N_2177104203_3a621e5 277467.606 2110220.063
N_2177104204_17ef033 277478.815 2110269.462
N_2177104205_6a03272 277491.376 2110277.795
N_2177104301_927681c 277445.307 2110367.812
N_2177104301_01baeb0 277445.307 2110367.812
N_2177104302_6060aa5 277487.391 2110359.685
N_2177104302_4a92d66 277487.391 2110359.685
N_2177105001_0e65e57 277500.587 2110020.636
N_2177105002_2022399 277509.500 2110001.300
N_2177105003_fe336ac 277515.380 2110007.207
N_2177105004_732a567 277515.900 2110014.900
N_2177105005_b974b6b 277516.121 2110026.918
N_2177105006_77844e9 277565.797 2110026.500
N_2177105006_dc340d2 277565.797 2110026.500
N_2177105007_1ad0859 277570.022 2110020.973
N_2177105007_66bb009 277570.022 2110020.973
N_2177105008_3b5938e 277573.800 2110016.000
N_2177105008_f6ed605 277573.800 2110016.000
N_2177105009_b8276a5 277575.800 2110013.500
N_2177105009_87e9ea6 277575.800 2110013.500
N_2177105010_cda34e3 277577.480 2110011.590
N_2177105010_daea428 277577.480 2110011.590
N_2177105011_60e722b 277579.000 2110009.600
N_2177105011_e0d499e 277579.000 2110009.600
N_2177105012_c533040 277582.100 2110005.500
N_2177105012_e807dce 277582.100 2110005.500
N_2177105013_0ffdb42 277549.700 2110092.000
N_2177105013_05cfddb 277549.700 2110092.000
N_2177105014_10b16b1 277551.900 2110062.100
N_2177105014_3607d6f 277551.900 2110062.100
N_2177105015_e7d2107 277555.700 2110044.500
N_2177105015_31bcc6d 277555.700 2110044.500
N_2177105016_eb627b3 277564.200 2110047.600
N_2177105016_1390709 277564.200 2110047.600
N_2177105017_c14994f 277559.600 2110036.100
N_2177105017_3f6656c 277559.600 2110036.100
N_2177105101_d00aec1 277541.440 2110181.659
N_2177105101_189b75e 277541.440 2110181.659
N_2177105102_2d437b1 277544.500 2110151.800
N_2177105102_afe4d00 277544.500 2110151.800
N_2177105103_c299cd2 277547.287 2110121.783
N_2177105103_cc0cbb9 277547.287 2110121.783
N_2177105201_784998e 277501.700 2110288.400
N_2177105202_4c246d2 277536.900 2110241.400
N_2177105202_fc5799a 277536.900 2110241.400
N_2177105203_6961cff 277538.900 2110211.400
N_2177105203_1346405 277538.900 2110211.400
N_2177105204_a29f742 277533.600 2110271.300
N_2177105204_37762f9 277533.600 2110271.300
N_2177105301_fa4b72d 277515.544 2110314.839
N_2177105302_9606551 277522.443 2110328.320
N_2177105303_5eac646 277521.237 2110374.340
N_2177105303_5722c89 277521.237 2110374.340
N_2177105304_daf457a 277521.505 2110388.378
N_2177105304_74e5de0 277521.505 2110388.378
N_2177105305_62fc696 277523.038 2110335.940
N_2177105305_a6749d7 277523.038 2110335.940
N_2177105306_5eb42fd 277523.038 2110344.034
N_2177105306_c19f17e 277523.038 2110344.034
N_2177105307_04357ac 277523.231 2110360.239
N_2177105307_608be71 277523.231 2110360.239
N_2177105308_560e556 277525.349 2110366.645
N_2177105308_bf580f0 277525.349 2110366.645
N_2177105309_825c8d2 277526.449 2110394.142
N_2177105309_1f856cb 277526.449 2110394.142
N_2177105310_1d81521 277528.423 2110330.866
N_2177105310_f731057 277528.423 2110330.866
N_2177105311_590b0ed 277529.837 2110322.136
N_2177105311_f7b1ad4 277529.837 2110322.136
N_2177105312_1b2d3f5 277529.832 2110352.808
N_2177105312_fdab565 277529.832 2110352.808
N_2177105313_63dbdb0 277530.226 2110318.638
N_2177105313_e35f42b 277530.226 2110318.638
N_2177105314_d18d106 277531.787 2110301.203
N_2177105314_7d5a1ef 277531.787 2110301.203
N_2177105315_e969ec5 277538.700 2110345.600
N_2177105315_02bca36 277538.700 2110345.600
N_2177105316_d8c0896 277544.562 2110354.264
N_2177105316_60ae539 277544.562 2110354.264
N_2177105317_133faba 277569.922 2110371.439
N_2177105317_c8dd3da 277569.922 2110371.439
N_2177105318_adc3bf9 277594.100 2110389.000
N_2177105318_8ac9a24 277594.100 2110389.000
N_2177105319_aa16381 277517.100 2110348.900
N_2177105319_b675cdd 277517.100 2110348.900
N_2177105320_b256615 277517.300 2110382.200
N_2177105320_e33d1d2 277517.300 2110382.200
N_2177105401_3e9250e 277536.709 2110401.699
N_2177105401_9959323 277536.709 2110401.699
N_2177105402_46fc268 277547.244 2110411.959
N_2177105402_653925d 277547.244 2110411.959
N_2177105403_e1828b8 277549.664 2110422.756
N_2177105403_71124f0 277549.664 2110422.756
N_2177105404_07ea1f5 277552.910 2110438.692
N_2177105404_175ba62 277552.910 2110438.692
N_2177105405_107ee05 277557.489 2110454.867
N_2177105405_4c7af6f 277557.489 2110454.867
N_2177105406_a1f8b19 277570.981 2110472.428
N_2177105406_61d8520 277570.981 2110472.428
N_2177105407_2100cfe 277581.516 2110485.660
N_2177105407_2ff876f 277581.516 2110485.660
N_2177105408_44233f7 277582.789 2110484.456
N_2177105408_c91f1df 277582.789 2110484.456
N_2177105501_143e2ba 277553.185 2110518.606
N_2177105501_dac10ad 277553.185 2110518.606
N_2177105502_8d780b9 277567.763 2110501.327
N_2177105502_29f291d 277567.763 2110501.327
N_2177106401_1b31034 277616.400 2110406.300
N_2177106401_06288cb 277616.400 2110406.300
N_2177106402_2928282 277637.700 2110425.600
N_2177106402_4377a0c 277637.700 2110425.600
N_2177106403_b914a8f 277660.623 2110444.778
N_2177106403_90ee6b6 277660.623 2110444.778
N_2177106404_979f07d 277684.219 2110463.513
N_2177106404_6a5fd8d 277684.219 2110463.513
N_2177107401_560ab74 277707.816 2110482.024
N_2177107401_0dc040f 277707.816 2110482.024
N_2177107501_084c7eb 277731.423 2110500.535
N_2177107501_78eda4e 277731.423 2110500.535
N_2177107502_481478b 277754.699 2110519.479
N_2177107502_85491ab 277754.699 2110519.479
N_2177107503_46cc85a 277777.545 2110539.077
N_2177107503_6f1097c 277777.545 2110539.077
N_2177108501_484de01 277800.300 2110558.500
N_2177108501_6522ac3 277800.300 2110558.500
N_2177108502_cf265b6 277822.917 2110577.947
N_2177108502_cfac700 277822.917 2110577.947
N_2177108503_c6955ac 277846.624 2110596.786
N_2177108503_b6dfe75 277846.624 2110596.786
N_2177108601_bdf56b5 277870.000 2110615.400
N_2177108601_91bc79c 277870.000 2110615.400
N_2177108602_8f85997 277893.500 2110634.000
N_2177108602_8f8b797 277893.500 2110634.000
N_2177109601_f8b6042 277916.982 2110652.543
N_2177109601_795ec84 277916.982 2110652.543
N_2177109602_21ddb0b 277940.479 2110671.382
N_2177109602_acf7944 277940.479 2110671.382
N_2177109603_3e36bc3 277963.900 2110690.000
N_2177109603_f68b372 277963.900 2110690.000
N_2177109701_6bc0e31 277988.101 2110707.764
N_2177109701_98998be 277988.101 2110707.764
N_2177109801_9cfdb77 277959.156 2110893.728
N_2177109801_4aa1e1d 277959.156 2110893.728
N_2177109802_043ace6 277961.866 2110884.721
N_2177109802_20b1c54 277961.866 2110884.721
N_2177109803_69db630 277976.430 2110848.356
N_2177109803_35414f8 277976.430 2110848.356
N_2177109804_c1b992e 277981.236 2110839.585
N_2177109804_0c7c96e 277981.236 2110839.585
N_2177109901_9a0c6ee 277948.264 2110988.873
N_2177109901_ccfc9d8 277948.264 2110988.873
N_2177109902_9540bb4 277949.309 2110940.276
N_2177109902_263ab19 277949.309 2110940.276
N_2177110001_487c244 277008.600 2111070.800
N_2177110002_8991bd4 277013.065 2111035.300
N_2177110003_ab1158a 277026.700 2111094.600
N_2177110101_8e456f0 277044.700 2111118.800
N_2177110102_cba2c39 277075.900 2111166.200
N_2177110103_15f8928 277093.600 2111193.900
N_2177110104_9b7fec1 277097.600 2111156.800
N_2177110501_d9cae41 277019.160 2111580.858
N_2177110601_26a2074 277031.464 2111656.345
N_2177110602_196f320 277039.873 2111655.366
N_2177111101_da0ab5a 277109.000 2111177.900
N_2177111201_5cee703 277107.200 2111220.900
N_2177111202_77d0ffa 277121.300 2111247.500
N_2177111203_32f891a 277134.400 2111274.500
N_2177111301_28b5bbe 277148.239 2111300.945
N_2177111302_b62ca2e 277162.100 2111327.600
N_2177111303_d156d96 277175.600 2111354.400
N_2177111304_3f43d91 277189.118 2111381.060
N_2177112301_8f5980b 277220.111 2111391.646
N_2177112401_ec76b77 277205.061 2111406.493
N_2177112402_0fc4d73 277222.302 2111431.021
N_2177112403_d000c72 277245.213 2111449.429
N_2177112404_f51fe0f 277270.600 2111465.300
N_2177112405_4525323 277277.339 2111449.754
N_2177112406_80e49e8 277295.323 2111475.095
N_2177112407_cdbb09c 277297.600 2111458.600
N_2177113401_e3af9c7 277326.645 2111487.602
N_2177113402_8841e8d 277354.438 2111498.200
N_2177113501_21709c6 277307.724 2111530.537
N_2177113502_79332c5 277315.500 2111583.500
N_2177113503_d3f57ba 277339.529 2111554.571
N_2177113504_1089c26 277341.200 2111584.500
N_2177113505_ef88051 277348.876 2111526.685
N_2177113601_06d3a77 277321.043 2111621.504
N_2177113602_2bee81b 277321.427 2111623.388
N_2177113603_29e35d6 277343.762 2111612.720
N_2177113604_ac92ef2 277345.879 2111620.141
N_2177113605_e4e81dd 277349.400 2111655.800
N_2177113701_56aee60 277351.200 2111709.100
N_2177113702_06ae46b 277351.500 2111758.000
N_2177113703_9fb76ca 277365.100 2111772.800
N_2177113801_c413eb2 277368.287 2111832.025
N_2177113802_1f1efe6 277377.700 2111832.900
N_2177113803_64e8895 277383.600 2111898.129
N_2177113804_f43206c 277391.100 2111891.600
N_2177114501_331cf38 277449.649 2111511.399
N_2177114502_890ea1a 277461.722 2111539.536
N_2177114503_b318550 277469.204 2111519.288
N_2177115501_40f3c5e 277588.208 2111581.257
N_2177115502_ba98043 277596.112 2111559.601
N_2177116201_7640219 277623.916 2111240.690
N_2177116201_7590b69 277623.916 2111240.690
N_2177116202_c504476 277689.600 2111202.370
N_2177116202_553b735 277689.600 2111202.370
N_2177116501_f2b1dae 277600.380 2111585.214
N_2177116502_cbeb2e5 277639.384 2111597.894
N_2177116503_92549b7 277644.797 2111572.996
N_2177116701_85db9bd 277671.496 2111712.804
N_2177117101_aa1ba18 277752.423 2111166.199
N_2177117101_b836f72 277752.423 2111166.199
N_2177117801_c68e3f9 277722.991 2111816.344
N_2177117802_b3e07d8 277729.158 2111815.901
N_2177117803_5761735 277780.553 2111808.980
N_2177117804_2a0382c 277783.338 2111836.664
N_2177118001_4489c15 277872.678 2111094.698
N_2177118001_db3dbd7 277872.678 2111094.698
N_2177118101_29f3300 277809.525 2111132.480
N_2177118101_8255d88 277809.525 2111132.480
N_2177118801_0c938e6 277853.624 2111837.864
N_2177119001_d1369ef 277930.990 2111057.956
N_2177119001_2c6d53a 277930.990 2111057.956
N_2177119002_3315800 277953.655 2111042.306
N_2177119002_f01a872 277953.655 2111042.306
N_2177119801_3819d37 277983.144 2111831.213
N_2177120801_2c22465 277076.914 2112815.674
N_2177121801_3e99182 277104.047 2112828.468
N_2177121802_e5c6611 277131.496 2112840.591
N_2177121803_bc7f21f 277187.726 2112860.881
N_2177122801_f7b19e6 277217.407 2112865.518
N_2177122802_63e71c6 277246.991 2112870.246
N_2177122803_4664021 277276.564 2112875.471
N_2177123801_e38b294 277306.303 2112879.707
N_2177123802_0089e09 277328.655 2112884.993
N_2177123803_283168f 277345.899 2112887.818
N_2177123901_a623641 277343.849 2112908.072
N_2177123902_f47f037 277349.118 2112937.082
N_2177123903_d28e1b8 277359.401 2112964.028
N_2177123904_8b9e84f 277385.595 2112976.652
N_2177124901_6fb5aea 277418.645 2112962.405
N_2177124902_26985fd 277435.817 2112956.793
N_2177124903_283ff99 277454.029 2112957.325
N_2177124904_ede9354 277487.012 2112967.089
N_2177124905_b7f038a 277487.293 2112996.146
N_2177129001_7bf2eb6 277989.287 2112024.765
N_2177129101_3fcd860 277959.476 2112105.436
N_2177134001_f5ef8a0 277462.871 2113057.905
N_2177134002_fcb274e 277473.192 2113033.667
N_2177134003_0757b35 277487.436 2113076.894
N_2177135001_967e84c 277514.799 2113090.490
N_2177135101_8cb6217 277545.121 2113103.756
N_2177135102_55d6568 277560.826 2113125.057
N_2177135103_664b836 277568.366 2113153.886
N_2177135104_916b3a7 277576.700 2113183.400
N_2177135201_0bfd5b9 277586.800 2113211.200
N_2177135202_cf15861 277598.500 2113213.300
N_2177136201_33cdfca 277614.000 2113206.500
N_2177136202_59e8418 277631.200 2113206.600
N_2177136203_8ee22bb 277637.200 2113219.000
N_2177136204_fc17b5d 277639.600 2113232.200
N_2177136205_14035fa 277650.100 2113244.700
N_2177136206_e3ddd98 277677.800 2113252.500
N_2177136207_6f0ed07 277682.800 2113254.100
N_2177137201_e6e68ed 277706.400 2113264.400
N_2177137202_30f53fb 277716.300 2113264.000
N_2177137203_5527cfc 277728.700 2113246.300
N_2177137204_f320986 277742.700 2113234.400
N_2177137205_e96fb60 277754.800 2113234.700
N_2177137206_617a522 277778.500 2113242.400
N_2177137207_9d0d3d7 277788.000 2113239.400
N_2177137301_c73bbf2 277799.200 2113351.800
N_2177138201_efc8c78 277812.000 2113254.000
N_2177138202_c903e2e 277841.400 2113252.600
N_2177138203_a710e15 277865.400 2113271.300
N_2177138204_969ebd9 277867.800 2113284.000
N_2177138205_aaad3b8 277871.200 2113291.800
N_2177138206_59996b9 277878.300 2113294.500
N_2177138401_f68c5b7 277805.000 2113460.000
N_2177138501_c53b274 277850.800 2113545.600
N_2177138502_97fbf3e 277872.400 2113597.000
N_2177138503_64b8981 277898.114 2113577.006
N_2177138601_6c5a11a 277888.988 2113619.705
N_2177138602_eed1e8e 277893.204 2113632.554
N_2177138603_56ab098 277894.051 2113638.653
N_2177138604_9218a5c 277896.600 2113648.400
N_2177139201_6916532 277901.800 2113284.900
N_2177139202_0983e53 277906.300 2113285.400
N_2177139203_48f7b65 277916.200 2113293.000
N_2177139301_117144a 277913.595 2113325.192
N_2177139302_54ab09e 277914.100 2113311.400
N_2177139303_efded05 277924.200 2113339.200
N_2177139304_d7f3097 277926.180 2113371.007
N_2177139305_3901c37 277929.900 2113355.400
N_2177139306_df2019d 277930.041 2113381.290
N_2177139307_e20cdce 277942.600 2113394.800
N_2177139401_0cf6f45 277967.600 2113410.700
N_2177139402_629ce16 277992.900 2113427.700
N_2177139501_6115d5a 277921.979 2113558.786
N_2177139502_d65f90c 277946.886 2113539.917
N_2177139503_0ba7192 277962.491 2113516.064
N_2177139504_0943469 277971.981 2113531.773
N_2177139505_600901b 277973.541 2113548.749
N_2177139506_c89eb01 277975.677 2113575.417
N_2177139507_d76ebd4 277978.154 2113559.452
N_2177139508_9b614a8 277978.719 2113586.686
N_2177139509_5547ef4 277979.600 2113567.800
N_2177139510_1473ec8 277986.000 2113504.300
N_2177139511_53167c7 277990.293 2113597.316
N_2177139601_b4829d2 277901.764 2113669.175
N_2177139602_0d3d523 277904.644 2113692.265
N_2177139603_11e4afb 277907.473 2113675.701
N_2177139604_0a2ab92 277910.163 2113681.345
N_2177139605_b1e88f5 277994.872 2113600.171
N_2177139701_5da39da 277910.188 2113701.119
N_2177139702_b98b552 277914.669 2113708.436
N_2177139703_68fe056 277930.355 2113719.723
N_2177139704_9d1567b 277944.547 2113729.967
N_2177139705_6a8cd90 277957.263 2113731.103
N_2177139706_6ca9f4d 277978.146 2113726.524
N_2177139708_53e21dd 277999.387 2113720.372
N_2178050901_4aecf6b 278009.615 2105980.226
N_2178050902_c2d14bf 278036.345 2105993.916
N_2178060001_67fae07 278063.070 2106007.470
N_2178060002_77899b9 278089.690 2106021.313
N_2178060501_e394cd0 278002.348 2106578.673
N_2178060502_e8688e2 278014.751 2106549.943
N_2178060503_c589acb 278026.419 2106525.171
N_2178060504_5e2ece1 278027.500 2106518.500
N_2178060505_97be0bf 278049.691 2106519.755
N_2178060506_7cefae9 278079.595 2106521.486
N_2178060507_aae0f12 278099.000 2106522.300
N_2178060701_bd43ca0 278061.415 2106799.082
N_2178060702_f646f59 278074.016 2106794.525
N_2178060703_5919755 278085.411 2106782.414
N_2178060704_249c427 278097.968 2106773.347
N_2178060801_df3786c 278004.478 2106817.762
N_2178060802_0c6150d 278032.810 2106807.933
N_2178061001_b94ad43 278116.380 2106035.012
N_2178061002_8e08d21 278143.177 2106048.456
N_2178061003_8c1596e 278161.747 2106058.265
N_2178061004_b581cdf 278174.674 2106099.635
N_2178061005_f4f0b4b 278183.716 2106081.799
N_2178061006_90892a1 278184.696 2106069.374
N_2178061007_c20846f 278186.342 2106072.411
N_2178061101_cc9a0c9 278164.137 2106120.070
N_2178061102_43afab6 278164.562 2106123.857
N_2178061103_e485972 278169.998 2106108.495
N_2178061104_cdf6e69 278176.510 2106129.414
N_2178061105_0d261c6 278192.758 2106138.448
N_2178061401_b6ce339 278122.793 2106490.707
N_2178061402_5244c0e 278128.544 2106477.262
N_2178061403_b57ddc5 278136.904 2106458.674
N_2178061404_1fce456 278160.000 2106456.500
N_2178061405_8740785 278189.800 2106460.400
N_2178061501_7f1b715 278107.773 2106516.548
N_2178061701_fa9dd51 278111.863 2106772.766
N_2178061702_c604d0f 278135.679 2106790.859
N_2178061801_0845d74 278152.033 2106800.105
N_2178061802_f3fd114 278162.932 2106801.714
N_2178061803_548614f 278192.869 2106803.278
N_2178062101_8fd5473 278202.992 2106143.446
N_2178062102_0d42e6f 278230.023 2106156.626
N_2178062103_116bdb0 278256.517 2106166.119
N_2178062104_db09550 278261.125 2106167.853
N_2178062105_434ea65 278271.778 2106169.934
N_2178062106_1b2ac25 278285.305 2106177.118
N_2178062401_8ab14e6 278219.300 2106464.500
N_2178062402_27b932f 278249.200 2106468.400
N_2178062403_0915341 278278.900 2106472.300
N_2178062801_0ad115f 278222.675 2106801.002
N_2178062802_b2a3089 278227.099 2106800.377
N_2178062803_e095bec 278250.152 2106811.187
N_2178062804_f56c712 278274.552 2106828.344
N_2178062805_e105b85 278292.200 2106841.800
N_2178062806_625954f 278299.400 2106844.200
N_2178063101_cc68203 278312.259 2106189.704
N_2178063102_00cbc7b 278327.520 2106194.659
N_2178063103_3c4a3b4 278331.979 2106196.145
N_2178063201_6157a0e 278340.551 2106200.555
N_2178063202_ab09453 278368.398 2106214.181
N_2178063401_7c47769 278306.744 2106474.431
N_2178063402_059775d 278322.883 2106474.018
N_2178063403_51b2d90 278335.242 2106470.596
N_2178063404_9b27eff 278365.900 2106458.600
N_2178063405_370f254 278370.100 2106457.800
N_2178063801_6949905 278317.400 2106849.000
N_2178063802_d8d5761 278325.100 2106857.200
N_2178063803_5e34d96 278343.000 2106875.900
N_2178063804_209eae8 278346.100 2106878.500
N_2178063805_40349b5 278361.400 2106881.800
N_2178063806_f7c2e39 278362.794 2106888.555
N_2178063807_551565c 278363.510 2106897.386
N_2178063901_94065db 278363.908 2106901.363
N_2178063902_f2f1429 278367.926 2106914.119
N_2178063903_cdb117a 278378.465 2106913.405
N_2178064101_f8ab148 278494.105 2106173.913
N_2178064201_8547914 278402.766 2106227.990
N_2178064202_ab1ca9a 278423.592 2106227.398
N_2178064203_a7df924 278453.541 2106226.446
N_2178064204_999c7af 278477.876 2106218.419
N_2178064205_459fa6c 278482.162 2106219.200
N_2178064206_fc8b62f 278484.558 2106218.247
N_2178064207_36b74d4 278487.425 2106203.199
N_2178064401_b5adc3e 278414.469 2106459.524
N_2178064402_c124b45 278425.693 2106460.366
N_2178064403_58b5e96 278430.490 2106459.665
N_2178064404_6613274 278433.578 2106438.419
N_2178064405_b67a57f 278436.992 2106438.582
N_2178064407_a7172ce 278455.700 2106439.200
N_2178064801_7493a9c 278464.681 2106898.720
N_2178064802_c7ec901 278472.306 2106898.844
N_2178064901_017b3ff 278407.736 2106906.883
N_2178064902_e794c2a 278437.362 2106902.415
N_2178064903_1675f0d 278450.167 2106899.983
N_2178064904_6becb71 278487.814 2106905.366
N_2178064905_a628cda 278492.321 2106911.713
N_2178065101_12e0eb8 278505.789 2106172.789
N_2178065102_05a6a6c 278535.694 2106170.350
N_2178065103_6419c9f 278541.500 2106169.992
N_2178065104_177dddf 278564.345 2106177.908
N_2178065105_e89195e 278576.536 2106185.283
N_2178065106_f61152f 278599.063 2106186.152
N_2178065801_4afd0ae 278588.345 2106894.778
N_2178065802_2d2bd74 278589.600 2106886.900
N_2178065803_3d7e692 278590.200 2106881.400
N_2178065804_0c9e836 278591.400 2106870.200
N_2178065805_ba7ce10 278592.635 2106857.036
N_2178065806_b696b39 278595.177 2106850.691
N_2178065901_cda9622 278501.971 2106927.394
N_2178065902_f13365a 278511.626 2106933.827
N_2178065903_aa16c0a 278538.116 2106947.855
N_2178065904_e21d0b9 278551.344 2106949.997
N_2178065905_1bf7264 278563.454 2106940.391
N_2178065906_6db6ce8 278577.936 2106914.167
N_2178066101_7bfd3e4 278614.556 2106187.727
N_2178066102_f92504e 278621.258 2106187.584
N_2178066103_5392eb8 278650.219 2106187.591
N_2178066104_9396ee2 278692.519 2106189.248
N_2178066801_61d72f0 278617.117 2106844.435
N_2178066802_f286a54 278638.897 2106841.308
N_2178067101_c78390b 278751.500 2106188.200
N_2178067501_9b6e573 278750.700 2106588.800
N_2178067601_860c9d0 278734.100 2106610.400
N_2178067701_78e02b3 278720.900 2106790.600
N_2178067702_40e47b0 278784.700 2106769.900
N_2178068701_6c28667 278804.700 2106763.600
N_2178070401_c5fea1c 278019.102 2107447.373
N_2178070402_dfd95cf 278021.426 2107483.115
N_2178070403_198df75 278021.470 2107477.038
N_2178070404_03dea4f 278021.657 2107487.925
N_2178070501_37882bd 278021.771 2107506.815
N_2178070502_26d73f0 278022.612 2107523.050
N_2178070503_3e7dc18 278030.730 2107533.859
N_2178070504_982762e 278056.464 2107549.237
N_2178070505_3139bed 278082.552 2107564.108
N_2178071501_32364c6 278108.778 2107578.576
N_2178071502_e140f1c 278134.981 2107593.190
N_2178071503_2b0ff7e 278146.595 2107598.372
N_2178071601_1a64756 278157.082 2107612.096
N_2178071602_6f47484 278174.719 2107636.396
N_2178071603_052c4c2 278190.459 2107661.913
N_2178072601_7eec607 278203.147 2107677.902
N_2178072602_5a2aefc 278211.839 2107681.344
N_2178072603_5342083 278240.732 2107688.554
N_2178072604_83f2fb6 278254.924 2107690.414
N_2178072605_d00f175 278270.208 2107686.779
N_2178072606_d4740b5 278273.009 2107690.733
N_2178072701_b129d6c 278271.546 2107715.107
N_2178072702_bea2c08 278271.454 2107725.986
N_2178072703_39a849f 278278.890 2107743.498
N_2178072704_a387853 278292.817 2107770.076
N_2178073701_c00b4fd 278305.997 2107789.451
N_2178073702_fbb6321 278379.408 2107778.196
N_2178073801_96019fe 278315.710 2107810.818
N_2178074701_421b0de 278402.433 2107767.046
N_2178074702_b849dcc 278419.172 2107740.297
N_2178074703_c29683a 278455.604 2107715.747
N_2178080701_08cdccb 278004.900 2108721.300
N_2178081802_b93898f 278191.700 2108879.500
N_2178083901_d250cef 278313.040 2108979.391
N_2178090301_964e924 278071.000 2109393.600
N_2178090401_a9f5f19 278016.600 2109417.200
N_2178090401_bff316c 278099.800 2109436.500
N_2178090402_d33e63d 278043.782 2109403.773
N_2178090601_ced500e 278012.828 2109660.263
N_2178090602_7bebcd1 278042.282 2109664.991
N_2178090603_8f6f659 278072.180 2109667.537
N_2178091301_1cdf7f0 278100.329 2109387.783
N_2178091302_10760ce 278129.308 2109380.245
N_2178091303_98bed11 278158.751 2109372.484
N_2178091304_3da4072 278187.497 2109364.722
N_2178091401_2e1b624 278104.200 2109441.900
N_2178091402_ddd4082 278118.700 2109459.400
N_2178091403_9e5afe8 278136.200 2109483.700
N_2178091501_b18bfb9 278153.600 2109508.300
N_2178091502_97cbb1c 278170.600 2109533.000
N_2178091503_3886881 278186.800 2109558.000
N_2178091601_de37dd4 278102.088 2109670.452
N_2178091602_5c6a729 278131.903 2109673.085
N_2178091603_4f41d55 278161.894 2109675.718
N_2178091604_840471a 278191.811 2109678.276
N_2178092301_3b7b057 278216.700 2109357.600
N_2178092302_0a01280 278245.221 2109349.422
N_2178092303_e65b91d 278274.432 2109341.661
N_2178092501_0d69b63 278203.600 2109583.600
N_2178092601_3ee32da 278205.500 2109679.400
N_2178092601_1dbb587 278219.800 2109608.500
N_2178092602_a8f8b71 278212.600 2109680.200
N_2178092602_4494b8e 278236.100 2109633.500
N_2178092603_8145c43 278221.500 2109681.300
N_2178092603_574fa98 278241.800 2109643.400
N_2178092604_8155009 278269.300 2109683.500
N_2178092701_eb996ff 278287.700 2109710.500
N_2178092702_321f9eb 278292.400 2109709.900
N_2178093001_c31c928 278301.839 2109007.478
N_2178093002_d850120 278304.574 2109037.148
N_2178093003_a4f2159 278309.142 2109067.042
N_2178093004_c107145 278313.942 2109074.803
N_2178093005_cb8b82c 278331.985 2109076.001
N_2178093006_d9cf80e 278363.461 2109073.444
N_2178093007_b436a06 278373.964 2109074.115
N_2178093008_d080a52 278393.138 2109088.726
N_2178093301_97ce8dd 278303.643 2109333.452
N_2178093302_2f6ee37 278332.200 2109325.200
N_2178093303_a4002d9 278361.600 2109317.500
N_2178093304_cf85551 278390.400 2109310.600
N_2178093601_5fb1741 278344.400 2109699.100
N_2178093701_6724a2e 278301.400 2109706.400
N_2178093702_6ca8b13 278312.100 2109701.600
N_2178093703_af941b3 278361.100 2109724.200
N_2178093704_a83258e 278377.500 2109748.900
N_2178093705_c15b324 278393.600 2109774.500
N_2178094101_46a844f 278414.319 2109109.051
N_2178094102_70c6ad2 278431.659 2109139.186
N_2178094103_a586fdb 278450.600 2109155.845
N_2178094104_ae404ff 278469.075 2109175.929
N_2178094201_6745211 278448.800 2109296.000
N_2178094202_e364222 278477.803 2109289.618
N_2178094203_6394d48 278490.314 2109200.814
N_2178094204_2cf8f75 278498.751 2109214.273
N_2178094301_903ee50 278419.600 2109303.100
N_2178094701_5b75ceb 278410.300 2109799.300
N_2178094801_b410b6d 278426.800 2109824.400
N_2178094802_5152d0b 278443.300 2109849.800
N_2178094803_db82ef6 278459.900 2109874.600
N_2178094804_007b467 278476.100 2109899.800
N_2178094901_4a32f05 278493.400 2109924.900
N_2178095201_61369f4 278500.846 2109233.462
N_2178095202_ba937f8 278510.400 2109257.700
N_2178095203_d91aa39 278512.251 2109282.080
N_2178095204_6c283db 278514.521 2109268.622
N_2178095205_c306b16 278516.354 2109279.791
N_2178095206_720109a 278565.300 2109242.300
N_2178095901_d5047eb 278510.100 2109950.700
N_2178095902_9aff3eb 278525.900 2109974.000
N_2178095903_c76a72c 278534.500 2109989.000
N_2178095904_2b321de 278543.200 2109999.200
N_2178096201_75201d3 278614.400 2109230.600
N_2178096202_3ba82b7 278663.500 2109216.700
N_2178097101_721cb2a 278728.500 2109197.600
N_2178097102_a49930e 278779.600 2109180.500
N_2178098101_738383f 278842.300 2109140.400
N_2178098102_e5dd26c 278848.000 2109161.300
N_2178098103_de826ad 278862.900 2109123.900
N_2178099001_045a5dd 278938.600 2109092.000
N_2178099002_e5fdf11 278974.900 2109073.800
N_2178099101_7beecac 278903.500 2109108.000
N_2178100701_8adebb8 278014.301 2110722.163
N_2178100701_3294ddd 278014.301 2110722.163
N_2178100702_f51151a 278019.614 2110768.996
N_2178100702_7d3fe59 278019.614 2110768.996
N_2178100703_eda88eb 278032.382 2110732.234
N_2178100703_587e960 278032.382 2110732.234
N_2178100704_df577fd 278041.041 2110737.002
N_2178100704_c4a3d10 278041.041 2110737.002
N_2178100705_c02407d 278049.500 2110741.400
N_2178100705_cab75ce 278049.500 2110741.400
N_2178100706_c7d953c 278055.128 2110787.663
N_2178100706_f73e5eb 278055.128 2110787.663
N_2178100707_b77dfe7 278055.547 2110757.785
N_2178100707_62af741 278055.547 2110757.785
N_2178100708_0eb2976 278057.018 2110749.067
N_2178100708_d553cbb 278057.018 2110749.067
N_2178100709_a81b26d 278079.191 2110769.015
N_2178100709_58ad8a4 278079.191 2110769.015
N_2178100801_06d52a4 278000.195 2110805.166
N_2178100801_2738934 278000.195 2110805.166
N_2178100802_274629a 278057.610 2110817.549
N_2178100802_d3fea7d 278057.610 2110817.549
N_2178100803_92bdcce 278059.464 2110877.307
N_2178100803_a424f97 278059.464 2110877.307
N_2178100804_f3b36e8 278059.894 2110847.428
N_2178100804_b2800c9 278059.894 2110847.428
N_2178100901_926b13c 278060.865 2110907.304
N_2178100901_921cb2b 278060.865 2110907.304
N_2178100902_8098d2d 278062.597 2110937.079
N_2178100902_0380425 278062.597 2110937.079
N_2178100903_82f8c0c 278064.119 2110996.955
N_2178100903_e9ddff4 278064.119 2110996.955
N_2178100904_efd6812 278065.421 2110966.965
N_2178100904_77910fe 278065.421 2110966.965
N_2178101701_55e404f 278102.288 2110788.401
N_2178101701_c5d3bb1 278102.288 2110788.401
N_2178101801_c166fb4 278124.689 2110808.014
N_2178101801_3cc3a8f 278124.689 2110808.014
N_2178101802_3239ae1 278147.549 2110827.287
N_2178101802_e83e3c5 278147.549 2110827.287
N_2178101803_7679e6e 278170.528 2110846.664
N_2178101803_8a3c00c 278170.528 2110846.664
N_2178101804_155c727 278193.314 2110866.610
N_2178101804_8726200 278193.314 2110866.610
N_2178102801_07c562e 278216.470 2110885.069
N_2178102801_303d5c1 278216.470 2110885.069
N_2178102901_b4a2b4d 278241.298 2110902.135
N_2178102901_735daf4 278241.298 2110902.135
N_2178102902_2d8f119 278249.625 2110974.972
N_2178102902_1dabbba 278249.625 2110974.972
N_2178102903_ebd2f0c 278259.100 2110946.400
N_2178102903_627eb88 278259.100 2110946.400
N_2178102904_38a0d0b 278263.122 2110918.038
N_2178102904_540b5c8 278263.122 2110918.038
N_2178105001_ea0aef5 278562.500 2110021.900
N_2178105002_98f23dd 278572.200 2110033.500
N_2178105003_eeb4712 278584.300 2110043.600
N_2178106001_9489402 278606.000 2110060.100
N_2178106002_623bab9 278635.900 2110074.700
N_2178106003_6f0a398 278655.900 2110081.100
N_2178106005_5ef5346 278664.900 2110090.700
N_2178106006_eed1492 278687.200 2110096.900
N_2178107101_e67eda4 278716.700 2110105.700
N_2178107102_45a149e 278746.300 2110114.300
N_2178107103_cde38b0 278777.300 2110122.600
N_2178108101_7c5f7c6 278807.200 2110125.900
N_2178108102_9c593ad 278836.300 2110126.400
N_2178108103_20d931a 278854.100 2110126.700
N_2178108104_42e08d5 278888.100 2110109.700
N_2178109001_e1cdea4 278926.000 2110094.000
N_2178109002_fe76106 278957.500 2110097.200
N_2178109101_8ea74a8 278983.900 2110107.700
N_2178109102_e06be52 278991.300 2110110.500
N_2178110001_98124db 278056.540 2111025.545
N_2178110001_8dd16bb 278056.540 2111025.545
N_2178110002_71f8340 278058.493 2111054.664
N_2178110002_f67c78d 278058.493 2111054.664
N_2178110003_56d63da 278065.531 2111083.790
N_2178110003_8368c0d 278065.531 2111083.790
N_2178110101_0f6ed1c 278033.496 2111193.263
N_2178110101_8ebbb5c 278033.496 2111193.263
N_2178110102_4b0291a 278052.558 2111170.096
N_2178110102_b4d724c 278052.558 2111170.096
N_2178110103_1e42068 278063.909 2111143.458
N_2178110103_a4034f5 278063.909 2111143.458
N_2178110104_84c42e1 278064.781 2111119.315
N_2178110104_13c0bf3 278064.781 2111119.315
N_2178110105_e68d44f 278066.833 2111103.180
N_2178110105_c645b76 278066.833 2111103.180
N_2178110201_4c67b6a 278007.680 2111296.477
N_2178110201_66e9365 278007.680 2111296.477
N_2178110202_502912b 278021.706 2111268.729
N_2178110202_1027f63 278021.706 2111268.729
N_2178110203_62bf6c1 278023.005 2111220.341
N_2178110203_0b13830 278023.005 2111220.341
N_2178110204_54d0a29 278043.432 2111248.386
N_2178110204_d7e975b 278043.432 2111248.386
N_2178110301_c1d0398 278005.304 2111333.566
N_2178110301_9878ac0 278005.304 2111333.566
N_2178110302_6a6ecca 278012.157 2111364.012
N_2178110302_268540e 278012.157 2111364.012
N_2178110303_84f3270 278019.559 2111394.820
N_2178110303_ab41279 278019.559 2111394.820
N_2178110304_30f2f8c 278087.429 2111303.190
N_2178110304_b22c41c 278087.429 2111303.190
N_2178110401_35302c8 278029.204 2111423.040
N_2178110401_ea8cf66 278029.204 2111423.040
N_2178110402_2c52105 278035.790 2111452.270
N_2178110402_b671ef1 278035.790 2111452.270
N_2178110403_067c9f4 278042.939 2111481.397
N_2178110403_2127a2a 278042.939 2111481.397
N_2178110501_018f3b7 278051.598 2111508.891
N_2178110501_bcda39c 278051.598 2111508.891
N_2178110502_bd591ad 278081.372 2111508.891
N_2178110502_286f4da 278081.372 2111508.891
N_2178110801_0007b78 278001.776 2111866.219
N_2178110901_a5f4a78 278002.311 2111906.158
N_2178110902_f84244f 278016.552 2111984.704
N_2178110903_5d51aef 278026.791 2111945.161
N_2178111101_39f4a99 278187.509 2111165.662
N_2178111101_9754879 278187.509 2111165.662
N_2178111102_41b0d2e 278191.250 2111177.450
N_2178111102_2926ba7 278191.250 2111177.450
N_2178111103_fc85f10 278196.377 2111139.827
N_2178111103_705c8be 278196.377 2111139.827
N_2178111201_46b7df5 278179.400 2111221.700
N_2178111201_cd67640 278179.400 2111221.700
N_2178111301_aede517 278138.329 2111359.948
N_2178111301_1671a84 278138.329 2111359.948
N_2178111302_d336952 278141.671 2111318.035
N_2178111302_ab99daa 278141.671 2111318.035
N_2178111303_d89c791 278154.502 2111308.094
N_2178111303_296406d 278154.502 2111308.094
N_2178111501_980022c 278111.355 2111508.891
N_2178111501_ebbe991 278111.355 2111508.891
N_2178111502_696923d 278141.239 2111512.363
N_2178111502_129332a 278141.239 2111512.363
N_2178111503_7416d92 278170.473 2111518.635
N_2178111503_4fa8bfa 278170.473 2111518.635
N_2178111504_904363b 278199.165 2111527.298
N_2178111504_db45834 278199.165 2111527.298
N_2178112001_014b0b7 278211.868 2111089.563
N_2178112001_374f33a 278211.868 2111089.563
N_2178112002_4d325e0 278221.440 2111060.252
N_2178112002_d735985 278221.440 2111060.252
N_2178112003_055a6d2 278231.166 2111032.070
N_2178112003_9da1bc7 278231.166 2111032.070
N_2178112004_557bbcd 278240.400 2111003.400
N_2178112004_ec148eb 278240.400 2111003.400
N_2178112101_22ba71c 278200.327 2111142.846
N_2178112101_3ccb77e 278200.327 2111142.846
N_2178112102_4fc5cf5 278202.369 2111118.813
N_2178112102_80bb997 278202.369 2111118.813
N_2178112103_00787c6 278215.064 2111147.949
N_2178112103_3df4b98 278215.064 2111147.949
N_2178112104_18b4a47 278258.565 2111161.191
N_2178112104_bd30ff4 278258.565 2111161.191
N_2178112105_5f7df1a 278273.553 2111166.530
N_2178112105_a6f6a27 278273.553 2111166.530
N_2178112106_6732a0e 278288.100 2111171.600
N_2178112106_444ec74 278288.100 2111171.600
N_2178112401_c91121e 278204.232 2111422.550
N_2178112401_a1b78ee 278204.232 2111422.550
N_2178112402_67c9944 278254.953 2111470.105
N_2178112402_0e245c0 278254.953 2111470.105
N_2178112501_0bd4217 278227.748 2111536.066
N_2178112501_1c81871 278227.748 2111536.066
N_2178112502_f25eca4 278256.319 2111545.161
N_2178112502_d093b2e 278256.319 2111545.161
N_2178112503_9b8d9f2 278284.251 2111555.769
N_2178112503_3a722c8 278284.251 2111555.769
N_2178113101_fb211e1 278316.200 2111180.200
N_2178113101_cc43ff2 278316.200 2111180.200
N_2178113102_10c73e1 278321.138 2111182.310
N_2178113102_1febbbe 278321.138 2111182.310
N_2178113103_a59bc88 278332.383 2111186.844
N_2178113103_d346a54 278332.383 2111186.844
N_2178113501_e2a11ed 278312.502 2111566.488
N_2178113501_e11a285 278312.502 2111566.488
N_2178113502_4b15efd 278337.030 2111532.707
N_2178113502_ae0e374 278337.030 2111532.707
N_2178113503_a24ebbc 278340.544 2111577.096
N_2178113503_a4ea40a 278340.544 2111577.096
N_2178113504_4c73cb5 278368.575 2111587.599
N_2178113504_0daf97f 278368.575 2111587.599
N_2178113505_69c912c 278396.716 2111598.199
N_2178113505_ba8c22c 278396.716 2111598.199
N_2178114501_91100d6 278411.516 2111565.149
N_2178114501_e39daf8 278411.516 2111565.149
N_2178114502_14fec3a 278437.811 2111571.463
N_2178114502_e780fec 278437.811 2111571.463
N_2178114601_6929bf5 278424.967 2111607.950
N_2178114601_9f6074e 278424.967 2111607.950
N_2178114602_4a3b666 278453.340 2111617.478
N_2178114602_1fc5177 278453.340 2111617.478
N_2178114603_d4944ed 278481.922 2111627.005
N_2178114603_ede3164 278481.922 2111627.005
N_2178115601_e403ccf 278510.508 2111636.110
N_2178115601_4dd8f3b 278510.508 2111636.110
N_2178115602_fa842de 278539.091 2111645.205
N_2178115602_1fe49a9 278539.091 2111645.205
N_2178115603_b892cc6 278567.783 2111654.189
N_2178115603_5657f7c 278567.783 2111654.189
N_2178115604_ee94906 278596.366 2111663.180
N_2178115604_9b0c57d 278596.366 2111663.180
N_2178115901_b500719 278578.000 2111991.600
N_2178115901_6acf95a 278578.000 2111991.600
N_2178115902_2ed64c7 278584.600 2111987.200
N_2178115902_9f02e45 278584.600 2111987.200
N_2178116601_0d9c21d 278625.158 2111671.732
N_2178116601_7008a6f 278625.158 2111671.732
N_2178116602_e6c7d80 278654.049 2111680.067
N_2178116602_7620d15 278654.049 2111680.067
N_2178116603_564a15a 278678.286 2111686.624
N_2178116603_8db2c1a 278678.286 2111686.624
N_2178116701_8a528ff 278662.400 2111767.300
N_2178116701_6558e5b 278662.400 2111767.300
N_2178116702_e7021a5 278662.800 2111721.400
N_2178116702_8bdfb42 278662.800 2111721.400
N_2178116801_66ff251 278668.100 2111851.200
N_2178116801_ad24d3d 278668.100 2111851.200
N_2178116901_9df77ec 278642.200 2111962.000
N_2178116901_661508b 278642.200 2111962.000
N_2178116902_747ba25 278647.400 2111959.900
N_2178116902_ccc133c 278647.400 2111959.900
N_2178116903_6069617 278669.700 2111929.800
N_2178116903_f1332b8 278669.700 2111929.800
N_2178116904_0ed3f85 278671.400 2111953.300
N_2178116904_22c8a6f 278671.400 2111953.300
N_2178117601_2fa1ae0 278712.074 2111695.226
N_2178117601_335e55a 278712.074 2111695.226
N_2178117701_d9d067c 278741.142 2111701.879
N_2178117701_16a4cc8 278741.142 2111701.879
N_2178117702_b0e2be3 278770.585 2111707.719
N_2178117702_8b73d9b 278770.585 2111707.719
N_2178118701_df4be3e 278800.248 2111712.598
N_2178118701_675db95 278800.248 2111712.598
N_2178118702_a9bfca8 278829.592 2111718.438
N_2178118702_d2d36e4 278829.592 2111718.438
N_2178118703_a114f9f 278859.034 2111724.390
N_2178118703_1a4a38f 278859.034 2111724.390
N_2178118704_528f995 278888.365 2111730.208
N_2178118704_eb56592 278888.365 2111730.208
N_2178119701_3e6df10 278906.561 2111734.214
N_2178119701_bc98955 278906.561 2111734.214
N_2178123901_11b7871 278350.934 2112992.273
N_2178123902_de7f838 278370.076 2112969.224
N_2178123903_a1c155d 278390.620 2112947.263
N_2178124101_4dd2ca1 278490.700 2112196.900
N_2178124101_444f306 278490.700 2112196.900
N_2178124201_314fd92 278468.400 2112236.600
N_2178124201_2c95bc4 278468.400 2112236.600
N_2178124202_a4eab2a 278473.100 2112203.600
N_2178124202_db361d0 278473.100 2112203.600
N_2178124801_878a6a4 278461.895 2112887.861
N_2178124802_f408b15 278484.200 2112872.400
N_2178124901_5a44ae8 278412.029 2112926.263
N_2178124902_d1838c7 278437.049 2112905.771
N_2178125001_c1f162c 278550.100 2112048.300
N_2178125001_e599316 278550.100 2112048.300
N_2178125002_b97586a 278553.500 2112046.400
N_2178125002_912d138 278553.500 2112046.400
N_2178125003_7f7867c 278563.600 2112041.300
N_2178125003_be1c642 278563.600 2112041.300
N_2178125004_4a9bade 278577.700 2112097.100
N_2178125004_609b73e 278577.700 2112097.100
N_2178125005_ee77058 278595.900 2112027.500
N_2178125005_f30a34b 278595.900 2112027.500
N_2178125101_6f66338 278520.100 2112197.400
N_2178125101_1b920ba 278520.100 2112197.400
N_2178125102_054c9c3 278540.300 2112185.600
N_2178125102_fbc041d 278540.300 2112185.600
N_2178125103_0cc0954 278569.700 2112171.600
N_2178125103_00ce888 278569.700 2112171.600
N_2178130401_6e132d1 278000.200 2113434.200
N_2178130402_e315915 278008.400 2113484.200
N_2178130403_7e3d0cf 278035.900 2113449.000
N_2178130404_181d078 278067.372 2113432.262
N_2178130405_66bac5c 278073.956 2113418.969
N_2178130406_f8e2edb 278080.100 2113424.200
N_2178130407_b538b97 278083.800 2113408.700
N_2178130408_e9488fc 278099.400 2113439.800
N_2178130501_d324718 278087.139 2113596.093
N_2178130601_18f14ca 278001.591 2113604.650
N_2178130602_748ecf5 278019.826 2113615.245
N_2178130603_f65ed23 278028.582 2113613.916
N_2178130604_6aebf7a 278040.702 2113610.751
N_2178130605_00f2bcd 278053.894 2113615.961
N_2178130606_3ec74b3 278059.796 2113619.083
N_2178130607_32f02c8 278066.916 2113622.759
N_2178130608_6f3a7c4 278076.576 2113609.881
N_2178130609_3bad5f2 278098.600 2113602.700
N_2178130701_dbcacd0 278016.521 2113723.170
N_2178130702_b5f026c 278023.848 2113757.771
N_2178130703_2305ba4 278023.901 2113765.171
N_2178130704_7fb70ca 278027.864 2113724.516
N_2178130705_7a8a6da 278028.248 2113773.839
N_2178130706_cfb6f4f 278036.337 2113733.538
N_2178130707_648e7d1 278037.156 2113775.904
N_2178130708_cfaa95c 278043.687 2113776.357
N_2178130709_3a526ab 278050.326 2113790.911
N_2178130710_20dcd49 278058.502 2113795.491
N_2178130711_065583e 278080.819 2113796.693
N_2178130801_8328427 278082.500 2113814.800
N_2178130802_4228985 278086.338 2113829.446
N_2178130803_5c5926a 278095.169 2113841.141
N_2178131201_722f590 278174.540 2113297.033
N_2178131202_e8fed4b 278189.158 2113270.943
N_2178131301_a04f5c6 278105.200 2113387.300
N_2178131302_3617d8f 278125.600 2113365.300
N_2178131303_b42036d 278140.311 2113344.738
N_2178131304_d5a6daa 278158.349 2113322.732
N_2178131401_f32ba30 278107.989 2113444.468
N_2178131402_ac0bc75 278130.502 2113438.380
N_2178131403_beafdc7 278153.800 2113424.000
N_2178131404_14648c2 278162.200 2113421.600
N_2178131405_dae00a1 278183.232 2113435.472
N_2178131406_7a132f7 278194.813 2113444.298
N_2178131601_aeb4046 278111.680 2113607.729
N_2178131602_7ffbce1 278120.949 2113620.288
N_2178131603_94c6628 278125.423 2113626.183
N_2178131604_9da7595 278146.123 2113619.407
N_2178131605_d56dbf1 278170.828 2113610.270
N_2178131606_18baa04 278185.115 2113604.208
N_2178131607_4ed066c 278192.070 2113623.659
N_2178131608_8b5a44d 278198.100 2113643.400
N_2178131801_ea25dbc 278106.528 2113850.776
N_2178131802_8c917be 278121.717 2113856.166
N_2178131803_b1f1e50 278139.099 2113861.790
N_2178131804_297ab5f 278148.184 2113866.109
N_2178131805_d3e12ff 278170.671 2113882.904
N_2178131806_520c96c 278174.081 2113884.910
N_2178131902_06a940a 278199.300 2113900.200
N_2178132001_03e9cfa 278287.940 2113085.531
N_2178132101_62e4040 278232.000 2113191.200
N_2178132102_d07ddd8 278244.970 2113165.052
N_2178132103_f5eb89f 278259.733 2113138.673
N_2178132104_ee133c0 278274.137 2113112.227
N_2178132201_b572730 278202.863 2113244.707
N_2178132202_72f17b4 278217.624 2113217.625
N_2178132401_56e0479 278205.000 2113449.000
N_2178132402_18f6994 278210.136 2113449.794
N_2178132403_e67adf6 278220.300 2113440.200
N_2178132404_3f81905 278230.300 2113436.400
N_2178132405_32b57ec 278240.500 2113442.900
N_2178132406_45cb11d 278251.200 2113457.700
N_2178132407_c85aee6 278261.800 2113469.800
N_2178132408_8bd91a3 278277.000 2113484.700
N_2178132601_6f40a42 278208.045 2113641.699
N_2178132602_45857d6 278222.332 2113639.508
N_2178132603_7a5fff0 278226.319 2113654.958
N_2178132604_00eea72 278233.012 2113674.799
N_2178132605_14de3ae 278236.620 2113685.486
N_2178132606_2622d1b 278264.500 2113678.600
N_2178132607_2d9ccd8 278294.178 2113673.891
N_2178132901_395c83d 278226.800 2113914.100
N_2178132902_d9b7737 278244.500 2113937.300
N_2178132903_294e6b3 278256.000 2113952.300
N_2178132904_158e338 278258.800 2113963.500
N_2178132905_0c5ed3b 278262.800 2113982.700
N_2178133001_634aa4f 278308.156 2113063.752
N_2178133002_91fc2fa 278316.800 2113037.500
N_2178133003_b07e8ff 278332.883 2113016.387
N_2178133601_bf4676a 278302.832 2113672.838
N_2178133602_17291ab 278312.173 2113692.137
N_2178133701_57133a4 278324.685 2113719.632
N_2178133702_8a05632 278331.701 2113749.109
N_2178133703_1843859 278337.177 2113765.831
N_2178133704_12726c9 278339.635 2113769.214
N_2178133705_fc4d95e 278344.762 2113771.886
N_2178133706_307ef28 278373.919 2113768.192
N_2178133707_1f3294a 278391.154 2113767.571
N_2178133708_3bdf916 278398.049 2113781.077
N_2178134801_4e89c82 278409.119 2113808.456
N_2178134802_09214ec 278424.056 2113835.612
N_2178134803_66d061d 278434.534 2113843.713
N_2178134804_6f3e340 278439.895 2113845.424
N_2178134805_eb2ef24 278449.100 2113842.000
N_2178134806_3d51710 278457.300 2113837.500
N_2178134807_a97d7d2 278469.800 2113854.600
N_2178134808_a19b0da 278473.400 2113857.300
N_2178134809_50e5d42 278486.700 2113870.500
N_2178135403_c4ee85a 278553.900 2113485.600
N_2178135801_fc678c2 278536.900 2113882.600
N_2178135802_f7537e2 278563.600 2113883.700
N_2178135803_fce4cc0 278591.100 2113868.400
N_2178136401_754309d 278610.844 2113490.265
N_2178136402_4bd3466 278647.900 2113489.400
N_2178136403_95bb3a8 278654.700 2113497.000
N_2178136404_52f1ff2 278666.600 2113496.200
N_2178136501_73e6872 278675.000 2113528.300
N_2178136502_cdf2758 278682.700 2113562.900
N_2178136503_97e1402 278695.300 2113599.200
N_2178136801_2d17868 278656.000 2113869.100
N_2178137601_dedf1b3 278702.800 2113630.400
N_2178137603_2aa84df 278728.000 2113678.700
N_2178137801_08ba9c4 278754.800 2113868.100
N_2178138601_476f250 278882.200 2113635.700
N_2178139601_289c84b 278979.500 2113605.300
N_2178142101_f782355 278263.601 2114152.818
N_2178142102_53b816a 278268.607 2114181.499
N_2178142104_fff4fcd 278285.100 2114132.200
N_2178142201_2256636 278279.631 2114206.524
N_2178142202_5eaa46a 278280.890 2114214.373
N_2178142203_3c3a61e 278285.669 2114239.515
N_2178142204_b90abad 278293.866 2114268.414
N_2178143001_58242ba 278324.300 2114058.100
N_2178143002_94f892f 278342.416 2114051.282
N_2178143003_8acb50e 278349.200 2114049.200
N_2178143201_1ba1200 278303.657 2114295.847
N_2178143301_1b59689 278317.301 2114323.604
N_2178143302_38c358e 278327.702 2114352.040
N_2178143303_6328d44 278335.343 2114381.682
N_2178143401_141c24f 278347.752 2114407.326
N_2178143402_228b9aa 278359.900 2114434.600
N_2178146205_d4a0388 278678.300 2114217.300
N_2178146206_0e6d2f5 278686.400 2114233.900
N_2178146207_4cbc338 278692.400 2114245.400
N_2178146208_5a5eaa4 278695.000 2114279.700
N_2178146209_fe6dad8 278695.440 2114257.076
N_2178147001_2634e64 278769.688 2114045.428
N_2178147201_b208a27 278720.200 2114270.600
N_2178147202_cd67ca9 278738.400 2114266.400
N_2178147203_70a84ab 278758.000 2114265.000
N_2178147204_f4d4688 278763.100 2114286.800
N_2178147301_7f023b7 278768.900 2114315.900
N_2178147302_4f7349b 278773.300 2114335.300
N_2178147303_a104ee5 278783.600 2114335.000
N_2178147304_b27bb7c 278791.700 2114334.100
N_2178148201_422147e 278800.442 2114208.462
N_2178148301_8027c4b 278804.500 2114332.100
N_2178148401_0b1af1e 278818.500 2114448.000
N_2178148501_2716d88 278830.879 2114544.469
N_2178148701_f7c8290 278847.529 2114709.139
N_2178148801_a1e1e39 278863.543 2114810.236
N_2178149701_35cfe2a 278943.771 2114798.587
N_2179090001_b5d58ec 279007.900 2109056.800
N_2179100101_6b11e08 279014.200 2110120.700
N_2179100102_f72550f 279041.700 2110132.700
N_2179100103_392fe65 279070.100 2110143.600
N_2179100104_5186cb3 279096.800 2110157.000
N_2179101101_eeaf747 279123.600 2110169.800
N_2179101102_6242e5a 279150.200 2110184.500
N_2179101103_8e3ba5c 279176.900 2110197.000
N_2179102101_1b900eb 279230.800 2110196.300
N_2179102102_5a55747 279249.000 2110188.900
N_2179102103_940b451 279258.600 2110193.200
N_2179102201_7f8847e 279209.500 2110210.700
N_2179102202_0364cc4 279274.100 2110218.800
N_2179102203_cd3d0e4 279287.000 2110247.800
N_2179102204_80d75ca 279299.400 2110274.400
N_2179103201_99ce777 279357.000 2110294.700
N_2179103202_d85dd92 279360.700 2110291.100
N_2179103203_81a1f39 279393.600 2110250.500
N_2179103301_ee39837 279312.100 2110306.200
N_2179103302_e72b9a2 279318.900 2110312.200
N_2179103303_b99a87e 279326.500 2110313.800
N_2179103305_e4002e2 279350.800 2110301.000
N_2179104101_42ec585 279463.000 2110191.800
N_2179104102_61a7618 279490.500 2110175.900
N_2179104201_b3b505f 279412.500 2110228.100
N_2179104202_66cb119 279434.600 2110206.200
N_2179105001_f9bc8c5 279573.600 2110092.500
N_2179105101_22da92f 279513.600 2110157.600
N_2179105102_cf13b96 279536.600 2110136.500
N_2179105103_1c6d97c 279554.000 2110114.400
N_2179105104_2aa44ce 279570.400 2110120.300
N_2179105105_131f689 279573.800 2110129.200
N_2179105106_0564b1a 279585.300 2110144.400
N_2179106101_7dfad05 279603.500 2110168.300
N_2179106102_4385b2f 279621.800 2110192.200
N_2179106201_134dbef 279641.400 2110217.400
N_2179106202_b8a50ef 279648.700 2110247.200
N_2179106203_21a0fd9 279649.400 2110227.800
N_2179106204_46cff7d 279651.400 2110260.300
N_2179106205_527821e 279653.000 2110263.100
N_2179106206_ecc9858 279658.800 2110271.300
N_2179106207_7bbe61c 279671.600 2110296.500
N_2179106208_0722dd7 279672.500 2110290.200
N_2179106301_16007ee 279631.300 2110380.500
N_2179106302_4f5037c 279632.100 2110355.300
N_2179106303_fb51bcb 279632.100 2110357.600
N_2179106304_2b068f3 279635.100 2110384.100
N_2179106305_f940cd0 279653.600 2110355.100
N_2179106306_9c5151a 279654.900 2110328.400
N_2179106307_ba4ca7c 279656.400 2110350.100
N_2179106308_01e0424 279656.700 2110321.800
N_2179106401_4d4b83a 279648.700 2110417.300
N_2179106402_910040a 279654.200 2110446.800
N_2179106403_38a690c 279654.800 2110450.300
N_2179106404_b01d871 279655.200 2110464.400
N_2179106405_2ce00fb 279655.300 2110465.800
N_2179111202_8acbef3 279187.100 2111256.500
N_2179111203_85c354a 279188.800 2111250.600
N_2179111204_d9de370 279194.900 2111232.400
N_2179111205_a34325f 279197.500 2111286.600
N_2179111206_18125e0 279198.700 2111221.200
N_2179111301_e86fd3c 279193.100 2111320.700
N_2179111302_4b143b7 279194.300 2111308.100
N_2179111303_25055e3 279194.400 2111328.900
N_2179111304_699e7d5 279195.300 2111303.400
N_2179112301_d6ab719 279201.600 2111338.200
N_2179112302_d36a78a 279217.000 2111358.700
N_2179112303_b67b6e2 279217.400 2111368.300
N_2179112304_7fbcfe9 279218.800 2111398.000
N_2179112401_d7a1733 279219.000 2111403.000
N_2179112402_77fc9a5 279234.400 2111411.000
N_2179112403_36c8c0d 279235.800 2111414.700
N_2179112404_3cbc692 279240.400 2111426.500
N_2179112405_4b3ed11 279248.400 2111446.900
N_2179112406_a479edb 279257.300 2111475.400
N_2179112501_b69ce4e 279265.200 2111503.900
N_2179112502_5476936 279276.200 2111515.000
N_2179112503_6b994c3 279290.442 2111507.155
N_2179112801_31bb4d3 279246.063 2111884.604
N_2179112802_5babc87 279254.500 2111876.200
N_2179112803_2c79300 279259.200 2111898.700
N_2179112804_c9b5b00 279276.100 2111854.200
N_2179112805_5fb349d 279284.500 2111838.200
N_2179112806_1924711 279292.500 2111832.100
N_2179112901_9891601 279249.200 2111999.100
N_2179112902_1038de3 279259.900 2111988.800
N_2179112903_48dc1e8 279265.800 2111947.800
N_2179112904_dbf49e2 279266.941 2111934.479
N_2179112905_9e4f292 279270.500 2111972.700
N_2179112906_aeb89fd 279271.900 2111964.400
N_2179112907_f55bf5a 279274.190 2111923.895
N_2179112908_2b7d11d 279277.200 2111916.100
N_2179113501_1442163 279302.600 2111556.100
N_2179113502_75ecbe1 279302.696 2111506.546
N_2179113503_b0aa6ad 279302.700 2111568.000
N_2179113504_3783232 279303.700 2111524.300
N_2179113505_3035a5a 279305.300 2111585.500
N_2179113601_f4217c3 279308.200 2111615.500
N_2179113602_85f18d6 279310.100 2111645.800
N_2179113603_3f82fd7 279311.000 2111675.800
N_2179113701_5c3dfe8 279309.900 2111720.500
N_2179113702_e154286 279313.200 2111735.600
N_2179113703_3485ca0 279314.600 2111700.200
N_2179113704_2c00d02 279315.000 2111705.200
N_2179113705_a03d845 279317.082 2111795.863
N_2179113706_b0bae76 279321.500 2111764.500
N_2179113707_4a82612 279322.900 2111792.700
N_2179113708_98d8012 279325.800 2111784.300
N_2179113801_dc24f1b 279313.657 2111810.630
N_2179113802_dc089b8 279314.114 2111800.278
N_2179121001_9796b8c 279152.500 2112054.000
N_2179121002_08ba47a 279154.300 2112047.700
N_2179121003_38bcaae 279157.100 2112087.700
N_2179121004_db0d8e6 279157.700 2112083.700
N_2179121005_a71bf0c 279176.300 2112037.300
N_2179121006_42ee938 279192.500 2112027.400
N_2179121007_cc5a684 279197.200 2112019.500
N_2179121101_1ea8ed9 279120.700 2112113.400
N_2179121102_a409848 279122.400 2112108.900
N_2179121103_eb20fd2 279122.400 2112126.900
N_2179121104_7d39e0c 279133.100 2112138.600
N_2179121105_fa4759d 279136.000 2112142.000
N_2179121106_900bee2 279145.700 2112101.900
N_2179121107_72fd9b0 279150.400 2112163.200
N_2179121108_d1b3a0d 279167.300 2112188.000
N_2179121201_522c4fd 279181.100 2112206.000
N_2179121202_21ce95e 279187.300 2112209.600
N_2179121801_96d5b00 279197.600 2112825.800
N_2179121802_6f862a0 279198.200 2112811.400
N_2179122001_b6949fd 279205.500 2112004.600
N_2179122002_a99fa4c 279220.200 2112003.800
N_2179122003_98e2015 279244.200 2112002.500
N_2179122201_dc8b1e1 279211.600 2112285.100
N_2179122202_4e26e23 279214.700 2112279.200
N_2179122203_23f4d6d 279215.500 2112277.600
N_2179122204_e0ad1d9 279217.400 2112226.500
N_2179122205_d10d34b 279226.900 2112258.900
N_2179122206_c61fa2e 279227.400 2112250.000
N_2179122207_73301a1 279227.900 2112253.900
N_2179122301_6ecedad 279203.600 2112311.300
N_2179122302_ea3a59e 279204.800 2112329.500
N_2179122303_bc77d5d 279205.300 2112305.900
N_2179122304_0a2ee08 279206.300 2112335.500
N_2179122305_4fc0749 279210.600 2112354.300
N_2179122306_ac2e550 279215.500 2112363.600
N_2179122307_ee57d73 279223.300 2112376.300
N_2179122308_f3d01fa 279227.700 2112385.900
N_2179122309_e478221 279230.500 2112390.600
N_2179122401_41b983e 279244.700 2112416.100
N_2179122402_4bba9c2 279249.700 2112452.300
N_2179122403_3435def 279250.900 2112435.700
N_2179122404_af367b7 279252.600 2112432.200
N_2179122405_0cca5c7 279255.200 2112435.100
N_2179122406_aec1330 279259.400 2112444.300
N_2179122407_278f2a3 279268.900 2112447.800
N_2179122408_c67977b 279294.600 2112424.300
N_2179122501_08f92ea 279246.000 2112577.300
N_2179122502_c087098 279261.100 2112502.100
N_2179122503_51a70a1 279263.900 2112511.300
N_2179122504_5e64af1 279279.400 2112544.100
N_2179122505_ff3bb5c 279281.900 2112549.600
N_2179122506_0df651e 279282.000 2112557.600
N_2179122507_8f47339 279283.700 2112553.400
N_2179122601_082a161 279224.300 2112689.800
N_2179122602_e6c3b0d 279225.200 2112679.600
N_2179122603_f099f2a 279231.800 2112669.100
N_2179122604_ee97c23 279237.600 2112656.800
N_2179122605_ae0d9f6 279240.900 2112654.100
N_2179122606_68c52f4 279255.000 2112651.000
N_2179122607_923fb0a 279259.700 2112648.400
N_2179122608_8c6c982 279259.900 2112642.700
N_2179122701_f9ae5b3 279209.400 2112799.400
N_2179122702_e857d6b 279217.000 2112750.000
N_2179122703_c72ffe8 279217.400 2112739.500
N_2179122704_11e6925 279226.600 2112705.800
N_2179122801_0d81e20 279200.300 2112846.700
N_2179122802_879b661 279201.000 2112852.200
N_2179122803_c77ee3e 279205.400 2112877.200
N_2179122804_6f40c9d 279207.800 2112881.400
N_2179122805_086ba1e 279210.600 2112896.600
N_2179122901_23ce81b 279235.600 2112959.600
N_2179122902_7e5a370 279241.300 2112966.800
N_2179122903_25c154d 279249.057 2112973.978
N_2179122904_20aa30a 279255.553 2112978.544
N_2179122905_7719c29 279268.222 2112979.895
N_2179122906_0597c06 279271.100 2112996.000
N_2179123401_127d275 279306.100 2112418.200
N_2179123402_f5085a3 279317.000 2112424.100
N_2179123403_cc8c6eb 279341.100 2112450.600
N_2179123404_f19692b 279343.500 2112470.500
N_2179123405_a067f68 279343.500 2112481.500
N_2179123406_6aba0b4 279345.900 2112459.700
N_2179123501_964097f 279343.200 2112556.900
N_2179123502_0f0b1a4 279344.200 2112564.900
N_2179123503_6b2cfe7 279348.000 2112501.000
N_2179123504_58e1d42 279349.200 2112571.500
N_2179123505_654df97 279350.900 2112543.900
N_2179123506_d1dec56 279352.800 2112519.200
N_2179123507_5a914f8 279354.400 2112534.500
N_2179123508_9898f07 279354.900 2112530.100
N_2179123509_b608308 279355.200 2112526.000
N_2179123510_a9cc457 279364.100 2112579.000
N_2179123511_cd62509 279366.100 2112584.600
N_2179123601_1be7726 279361.900 2112606.400
N_2179123602_610abc5 279366.900 2112612.400
N_2179123603_88457ba 279384.800 2112613.400
N_2179123604_5bc05d7 279386.685 2112614.417
N_2179123605_a2a0a1e 279387.529 2112615.093
N_2179123606_265a537 279392.800 2112666.200
N_2179123607_362b212 279394.800 2112669.000
N_2179123608_843755d 279397.500 2112628.700
N_2179123609_f6128d9 279399.600 2112648.100
N_2179124601_efa2b91 279400.000 2112677.300
N_2179124602_3dd5a70 279400.300 2112641.500
N_2179124603_4e1e5c6 279409.300 2112684.700
N_2179124604_6d0ae75 279430.700 2112688.000
N_2179124605_6af4249 279448.000 2112698.600
N_2179124701_3fd812e 279449.600 2112700.400
N_2179124702_c77f655 279451.700 2112777.800
N_2179124703_9fa2fca 279456.800 2112709.900
N_2179124704_3806966 279457.700 2112748.100
N_2179124705_7676681 279461.600 2112733.100
N_2179124706_5fe652f 279461.700 2112717.700
N_2179124801_2260c15 279446.200 2112816.600
N_2179124802_30baaf0 279447.600 2112827.100
N_2179124803_a5469cf 279452.700 2112807.500
N_2179124804_67d1faf 279457.600 2112870.000
N_2179124805_caf46d4 279458.200 2112839.000
N_2179124806_b91849b 279459.300 2112850.000
N_2179124807_25d5cdd 279475.500 2112877.900
N_2179124808_d2e1ed6 279485.300 2112882.100
N_2179124901_305e835 279488.500 2112914.900
N_2179124902_2206429 279490.700 2112939.300
N_2179124903_2b68d53 279491.700 2112973.700
N_2179124904_61a61a3 279492.100 2112968.000
N_2179124905_7f5e8c1 279493.900 2112947.900
N_2179130501_68fb310 279058.500 2113570.300
N_2179130601_a34c052 279067.600 2113603.700
N_2179130602_fa94698 279075.200 2113638.700
N_2179132001_9327c47 279274.300 2113005.800
N_2179132002_d36fca0 279280.300 2113025.300
N_2179132003_f19a01e 279282.700 2113034.800
N_2179132004_56a4356 279283.800 2113040.500
N_2179134001_f96ca89 279471.300 2113087.000
N_2179134002_1b5030c 279471.700 2113095.000
N_2179134003_00a60a0 279472.400 2113068.400
N_2179134004_f5a7bf3 279473.200 2113058.000
N_2179134005_ccd252a 279480.700 2113032.300
N_2179134006_37b9ecf 279483.500 2113002.100
N_2179134101_84dda8f 279470.800 2113145.800
N_2179134102_aa0fcec 279471.500 2113117.300
N_2179134103_ef7e119 279472.700 2113154.700
N_2179134104_4872a21 279482.200 2113174.000
N_2179134201_8ea02ee 279486.900 2113204.600
N_2179134202_ff894cb 279492.200 2113229.900
N_2179135201_977ce8f 279511.800 2113233.200
N_2179135202_b7da7ba 279527.300 2113236.600
N_2179135203_b146dee 279541.504 2113255.664
N_2179135204_2ff689a 279548.200 2113284.700
N_2179135301_cbd9ba8 279553.500 2113300.900
N_2179135302_734b229 279559.000 2113312.500
N_2179135303_2568f40 279571.700 2113339.500
N_2179135304_3108969 279584.800 2113366.500
N_2179135305_bd8d741 279588.900 2113394.700
N_2179135306_ca86e62 279589.600 2113375.100
N_2179135401_9ccfd01 279585.700 2113403.600
N_2179140701_a4903a1 279026.968 2114754.099
N_2179141601_f5fa501 279119.300 2114650.900
N_2179141701_02d9717 279120.929 2114712.906
B_2173077305_18722_44aa90b 273781.778 2107382.938
B_2174064805_21889_98742e6 274485.100 2106871.200
B_2178137603_29700_aaa625c 278728.000 2113678.700
B_2179105001_30077_d46d12c 279573.600 2110092.500
