[TITLE]
;;Project: Mumbai Urban Stormwater Flood Prediction System
;;Model: Ward L Kurla Hydrologic & Dynamic Wave Hydraulic Simulation
;;Rainfall: 944.2 mm 3-hour totals disaggregated to 15-minute depths with static triangular weights
;;Rainfall intervals are reconstructed, not measured 15-minute observations
;;Outfalls: FREE boundaries as specified in source CSV; tide curve metadata ignored (no tide data)

[OPTIONS]
FLOW_UNITS           CMS
INFILTRATION         HORTON
FLOW_ROUTING         DYNWAVE
LINK_OFFSETS         DEPTH
ALLOW_PONDING        YES
MIN_SLOPE            0
START_DATE           07/26/2005
START_TIME           00:00:00
END_DATE             07/27/2005
END_TIME             03:00:00
REPORT_START_DATE    07/26/2005
REPORT_START_TIME    00:00:00
SWEEP_START          01/01
SWEEP_END            12/31
DRY_DAYS             0
REPORT_STEP          00:15:00
WET_STEP             00:05:00
DRY_STEP             01:00:00
ROUTING_STEP         00:00:05
INERTIAL_DAMPING     PARTIAL
NORMAL_FLOW_LIMITED  BOTH
FORCE_MAIN_EQUATION  H-W
VARIABLE_STEP        0.75
MINIMUM_STEP         0.5
MAX_TRIALS           8
HEAD_TOLERANCE       0.001

[RAINGAGES]
;;Name           Format     Interval Catchnum   Source
RG_SANTACRUZ     VOLUME     0:15     1.0        TIMESERIES TS_2005_JULY26

[JUNCTIONS]
;;Name           Elevation  MaxDepth   InitDepth  SurDepth   Apond
2175074902       24.692     10.307     0.000      0.000      100.0   
2175073910       24.900     9.532      0.000      0.000      100.0   
2175074803       25.193     3.684      0.000      0.000      100.0   
2175074908       25.132     4.859      0.000      0.000      100.0   
2175074804       25.210     3.667      0.000      0.000      100.0   
2175084001       24.517     10.111     0.000      0.000      100.0   
2175074905       25.059     6.945      0.000      0.000      100.0   
2175074906       25.097     6.539      0.000      0.000      100.0   
2175074907       25.116     6.520      0.000      0.000      100.0   
2175075802       25.300     4.969      0.000      0.000      100.0   
2175075803       26.007     6.728      0.000      0.000      100.0   
2175075804       26.029     7.382      0.000      0.000      100.0   
2175075806       26.542     6.869      0.000      0.000      100.0   
2175075807       26.044     7.367      0.000      0.000      100.0   
2175075809       26.081     11.980     0.000      0.000      100.0   
2175075901       26.625     13.641     0.000      0.000      100.0   
2175075902       26.686     11.030     0.000      0.000      100.0   
2175075903       26.779     12.537     0.000      0.000      100.0   
2175075904       26.913     8.058      0.000      0.000      100.0   
2175076703       26.162     12.994     0.000      0.000      100.0   
2175076801       26.115     13.059     0.000      0.000      100.0   
2175076705       26.196     11.638     0.000      0.000      100.0   
2175076802       26.979     22.701     0.000      0.000      100.0   
2175077803       26.704     6.394      0.000      0.000      100.0   
2175076905       27.134     25.748     0.000      0.000      100.0   
2175077702       26.228     5.664      0.000      0.000      100.0   
2175077704       26.459     4.274      0.000      0.000      100.0   
2175077706       26.242     5.190      0.000      0.000      100.0   
2175077801       26.581     3.851      0.000      0.000      100.0   
2175078701       26.923     4.327      0.000      0.000      100.0   
2175078702       26.893     4.435      0.000      0.000      100.0   
2175078703       26.856     1.795      0.000      0.000      100.0   
2175079605       26.824     2.816      0.000      0.000      100.0   
2175079602       26.800     2.641      0.000      0.000      100.0   
2175079603       26.793     2.639      0.000      0.000      100.0   
2175079604       26.786     1.818      0.000      0.000      100.0   
2176070701       26.780     2.491      0.000      0.000      100.0   
2175084002       24.404     8.065      0.000      0.000      100.0   
2175084003       24.342     6.090      0.000      0.000      100.0   
2175084004       24.251     7.449      0.000      0.000      100.0   
2175084102       24.138     6.294      0.000      0.000      100.0   
2175085101       26.278     7.637      0.000      0.000      100.0   
2175086001       27.000     5.530      0.000      0.000      100.0   
2175086101       26.500     4.968      0.000      0.000      100.0   
2175086302       24.596     7.212      0.000      0.000      100.0   
2175087201       24.737     5.909      0.000      0.000      100.0   
2175087202       24.856     4.860      0.000      0.000      100.0   
2175087802       26.536     2.833      0.000      0.000      100.0   
2175088301       25.130     4.246      0.000      0.000      100.0   
2175088401       25.075     6.847      0.000      0.000      100.0   
2175088302       25.191     6.663      0.000      0.000      100.0   
2175088303       25.225     6.629      0.000      0.000      100.0   
2175088304       25.500     9.061      0.000      0.000      100.0   
2175088402       25.084     6.838      0.000      0.000      100.0   
2175088602       25.304     3.925      0.000      0.000      100.0   
2175089401       25.413     4.568      0.000      0.000      100.0   
2175089501       26.200     5.761      0.000      0.000      100.0   
2175089502       25.215     4.089      0.000      0.000      100.0   
2175089503       25.607     4.669      0.000      0.000      100.0   
2175089601       25.304     6.459      0.000      0.000      100.0   
2175089701       25.645     6.931      0.000      0.000      100.0   
2176045803       23.103     4.747      0.000      0.000      100.0   
2176046601       23.053     6.379      0.000      0.000      100.0   
2176045901       23.162     4.697      0.000      0.000      100.0   
2176046501       23.000     6.432      0.000      0.000      100.0   
2176047501       22.900     6.532      0.000      0.000      100.0   
2176047502       22.873     5.677      0.000      0.000      100.0   
2176056101       23.254     4.638      0.000      0.000      100.0   
2176057401       23.340     7.038      0.000      0.000      100.0   
2176057502       23.405     4.850      0.000      0.000      100.0   
2176057604       23.440     4.395      0.000      0.000      100.0   
2176058701       23.490     7.069      0.000      0.000      100.0   
2176058801       23.500     7.794      0.000      0.000      100.0   
2176059901       23.552     7.564      0.000      0.000      100.0   
2176069601       23.794     5.166      0.000      0.000      100.0   
2177060401       23.706     4.140      0.000      0.000      100.0   
2176069804       23.851     4.400      0.000      0.000      100.0   
2176069803       23.862     3.949      0.000      0.000      100.0   
2176070702       26.772     2.660      0.000      0.000      100.0   
2176070703       26.770     2.662      0.000      0.000      100.0   
2176070706       26.766     2.646      0.000      0.000      100.0   
2176070704       25.750     4.524      0.000      0.000      100.0   
2176071705       25.723     3.709      0.000      0.000      100.0   
2176070705       25.788     5.852      0.000      0.000      100.0   
2176071701       26.759     3.527      0.000      0.000      100.0   
2176070707       25.827     12.234     0.000      0.000      100.0   
2176070801       25.895     12.263     0.000      0.000      100.0   
2176072701       25.251     3.268      0.000      0.000      100.0   
2176071702       26.752     3.395      0.000      0.000      100.0   
2176071703       26.745     2.809      0.000      0.000      100.0   
2176071704       26.742     2.690      0.000      0.000      100.0   
2176071706       26.739     2.966      0.000      0.000      100.0   
2176072801       25.698     19.186     0.000      0.000      100.0   
2176072704       26.732     3.700      0.000      0.000      100.0   
2176071901       25.989     14.443     0.000      0.000      100.0   
2176073601       25.209     4.264      0.000      0.000      100.0   
2176072702       26.725     3.707      0.000      0.000      100.0   
2176072703       26.718     8.573      0.000      0.000      100.0   
2176073801       26.712     18.172     0.000      0.000      100.0   
2176073803       25.680     13.057     0.000      0.000      100.0   
2176073602       25.204     4.243      0.000      0.000      100.0   
2176073603       25.182     11.020     0.000      0.000      100.0   
2176073604       25.157     13.297     0.000      0.000      100.0   
2176074501       25.129     7.425      0.000      0.000      100.0   
2176073802       26.705     13.751     0.000      0.000      100.0   
2176073804       26.698     12.039     0.000      0.000      100.0   
2176074801       25.669     13.940     0.000      0.000      100.0   
2176073806       26.691     8.381      0.000      0.000      100.0   
2176073805       25.924     20.392     0.000      0.000      100.0   
2176074802       26.685     5.934      0.000      0.000      100.0   
2176073901       26.481     17.582     0.000      0.000      100.0   
2176073902       26.891     12.123     0.000      0.000      100.0   
2176074502       25.101     4.407      0.000      0.000      100.0   
2176075501       25.088     4.420      0.000      0.000      100.0   
2176074804       25.653     4.807      0.000      0.000      100.0   
2176074803       26.678     3.754      0.000      0.000      100.0   
2176075801       26.664     3.803      0.000      0.000      100.0   
2176075901       25.639     14.491     0.000      0.000      100.0   
2176076402       24.650     4.782      0.000      0.000      100.0   
2176075502       25.073     5.402      0.000      0.000      100.0   
2176075503       25.041     4.512      0.000      0.000      100.0   
2176076501       25.030     4.548      0.000      0.000      100.0   
2176075802       26.657     6.020      0.000      0.000      100.0   
2176075803       26.651     6.714      0.000      0.000      100.0   
2176075903       26.644     4.545      0.000      0.000      100.0   
2176075902       25.628     16.670     0.000      0.000      100.0   
2176076902       25.613     36.374     0.000      0.000      100.0   
2176076901       26.637     15.680     0.000      0.000      100.0   
2176076401       25.017     4.415      0.000      0.000      100.0   
2176076403       24.618     6.474      0.000      0.000      100.0   
2176076405       24.600     6.415      0.000      0.000      100.0   
2176076406       24.300     6.715      0.000      0.000      100.0   
2176077405       24.281     5.344      0.000      0.000      100.0   
2176076502       24.332     4.955      0.000      0.000      100.0   
2176076503       24.318     5.143      0.000      0.000      100.0   
2176076504       24.345     4.297      0.000      0.000      100.0   
2176076601       24.400     4.006      0.000      0.000      100.0   
2176076602       24.386     9.717      0.000      0.000      100.0   
2176076603       24.373     9.730      0.000      0.000      100.0   
2176076604       24.359     5.050      0.000      0.000      100.0   
2176076701       24.414     26.132     0.000      0.000      100.0   
2176076702       24.427     14.699     0.000      0.000      100.0   
2176076703       24.441     6.600      0.000      0.000      100.0   
2176076801       24.454     4.037      0.000      0.000      100.0   
2176076903       26.549     15.768     0.000      0.000      100.0   
2176076904       25.175     16.702     0.000      0.000      100.0   
2176076906       25.155     5.296      0.000      0.000      100.0   
2176076905       25.165     5.286      0.000      0.000      100.0   
2176077901       25.142     9.239      0.000      0.000      100.0   
2176077402       24.265     5.360      0.000      0.000      100.0   
2176077403       24.244     5.605      0.000      0.000      100.0   
2176077404       24.215     7.217      0.000      0.000      100.0   
2176078401       24.151     6.281      0.000      0.000      100.0   
2176077801       24.468     5.107      0.000      0.000      100.0   
2176077802       25.136     4.878      0.000      0.000      100.0   
2176077803       24.490     7.817      0.000      0.000      100.0   
2176077805       24.485     7.822      0.000      0.000      100.0   
2176077804       24.476     9.496      0.000      0.000      100.0   
2176078101       23.955     4.114      0.000      0.000      100.0   
2176079001       23.911     5.304      0.000      0.000      100.0   
2176078201       23.974     5.140      0.000      0.000      100.0   
2176078301       24.000     4.740      0.000      0.000      100.0   
2176078302       24.034     5.284      0.000      0.000      100.0   
2176080601       25.786     5.879      0.000      0.000      100.0   
2176080602       25.929     4.005      0.000      0.000      100.0   
2176080701       25.775     7.120      0.000      0.000      100.0   
2176080702       25.432     5.394      0.000      0.000      100.0   
2176080902       25.811     4.854      0.000      0.000      100.0   
2176080901       25.739     5.297      0.000      0.000      100.0   
2176081001       26.100     11.563     0.000      0.000      100.0   
2176081701       26.023     4.936      0.000      0.000      100.0   
2176081802       25.512     11.921     0.000      0.000      100.0   
2176081803       25.561     6.670      0.000      0.000      100.0   
2176081804       26.203     4.855      0.000      0.000      100.0   
2176082801       26.400     5.032      0.000      0.000      100.0   
2176082901       25.799     8.633      0.000      0.000      100.0   
2176083901       27.268     5.652      0.000      0.000      100.0   
2176084001       27.300     10.196     0.000      0.000      100.0   
2176086001       25.185     17.650     0.000      0.000      100.0   
2176086002       25.203     7.295      0.000      0.000      100.0   
2176086003       25.195     12.824     0.000      0.000      100.0   
2176086004       25.208     5.276      0.000      0.000      100.0   
2176086101       25.234     4.580      0.000      0.000      100.0   
2176086102       25.224     4.262      0.000      0.000      100.0   
2176086103       25.214     5.085      0.000      0.000      100.0   
2176086201       25.273     3.159      0.000      0.000      100.0   
2176086202       25.263     3.301      0.000      0.000      100.0   
2176086203       25.253     7.377      0.000      0.000      100.0   
2176086204       25.244     5.484      0.000      0.000      100.0   
2176086301       25.273     3.313      0.000      0.000      100.0   
2176086302       25.294     8.958      0.000      0.000      100.0   
2176086303       25.315     6.287      0.000      0.000      100.0   
2176086401       25.336     5.525      0.000      0.000      100.0   
2176086402       25.357     5.238      0.000      0.000      100.0   
2176087001       25.254     7.212      0.000      0.000      100.0   
2176087002       26.031     6.435      0.000      0.000      100.0   
2176087401       25.379     4.672      0.000      0.000      100.0   
2176087402       25.400     4.982      0.000      0.000      100.0   
2176087403       25.421     3.183      0.000      0.000      100.0   
2176087501       25.442     4.260      0.000      0.000      100.0   
2176088001       25.341     9.060      0.000      0.000      100.0   
2176088002       26.083     8.318      0.000      0.000      100.0   
2176088501       25.463     4.969      0.000      0.000      100.0   
2176088502       25.484     4.712      0.000      0.000      100.0   
2176088503       25.506     6.489      0.000      0.000      100.0   
2176088504       25.527     4.933      0.000      0.000      100.0   
2176088601       25.548     4.884      0.000      0.000      100.0   
2176088701       27.115     7.317      0.000      0.000      100.0   
2176089701       27.066     13.315     0.000      0.000      100.0   
2176088801       27.187     10.484     0.000      0.000      100.0   
2176088802       27.153     9.061      0.000      0.000      100.0   
2176088901       27.252     8.953      0.000      0.000      100.0   
2176088902       27.220     8.269      0.000      0.000      100.0   
2176089501       25.771     2.816      0.000      0.000      100.0   
2176089607       25.673     6.759      0.000      0.000      100.0   
2176089502       25.870     2.750      0.000      0.000      100.0   
2176089601       25.558     5.717      0.000      0.000      100.0   
2176089602       25.572     5.970      0.000      0.000      100.0   
2176089603       27.031     10.267     0.000      0.000      100.0   
2176089605       25.538     6.750      0.000      0.000      100.0   
2176089604       25.590     5.952      0.000      0.000      100.0   
2176089606       25.610     6.678      0.000      0.000      100.0   
2176089608       25.630     6.670      0.000      0.000      100.0   
2176091001       25.611     7.927      0.000      0.000      100.0   
2176092101       25.737     8.441      0.000      0.000      100.0   
2176092201       26.200     10.091     0.000      0.000      100.0   
2176092502       26.137     6.332      0.000      0.000      100.0   
2176093001       26.135     10.297     0.000      0.000      100.0   
2176093002       27.678     3.757      0.000      0.000      100.0   
2176093102       26.279     10.567     0.000      0.000      100.0   
2176093201       25.841     5.605      0.000      0.000      100.0   
2176093301       25.927     8.661      0.000      0.000      100.0   
2176093401       26.000     14.458     0.000      0.000      100.0   
2176093501       26.500     12.525     0.000      0.000      100.0   
2176093502       26.047     9.488      0.000      0.000      100.0   
2176093701       26.290     10.952     0.000      0.000      100.0   
2176093901       25.157     18.136     0.000      0.000      100.0   
2176093902       25.279     17.107     0.000      0.000      100.0   
2176093903       25.371     12.159     0.000      0.000      100.0   
2176093904       25.418     12.112     0.000      0.000      100.0   
2176094001       28.000     3.415      0.000      0.000      100.0   
2176094201       26.516     10.196     0.000      0.000      100.0   
2176094202       26.614     10.460     0.000      0.000      100.0   
2176094401       26.143     9.530      0.000      0.000      100.0   
2176094501       26.357     13.046     0.000      0.000      100.0   
2176095401       26.225     11.555     0.000      0.000      100.0   
2176094502       26.440     8.709      0.000      0.000      100.0   
2176094901       25.518     9.439      0.000      0.000      100.0   
2176094902       25.600     9.357      0.000      0.000      100.0   
2176095301       26.812     9.040      0.000      0.000      100.0   
2176095402       27.000     12.493     0.000      0.000      100.0   
2176095701       26.670     11.258     0.000      0.000      100.0   
2176095801       26.909     8.238      0.000      0.000      100.0   
2176095901       27.082     8.901      0.000      0.000      100.0   
2176104002       26.704     17.301     0.000      0.000      100.0   
2176096901       30.000     8.704      0.000      0.000      100.0   
2176098001       27.280     8.777      0.000      0.000      100.0   
2176099901       28.812     5.010      0.000      0.000      100.0   
2176099902       28.561     9.330      0.000      0.000      100.0   
2177090801       27.561     12.054     0.000      0.000      100.0   
2176101101       25.021     4.579      0.000      0.000      100.0   
2176101401       26.172     8.716      0.000      0.000      100.0   
2176102002       24.281     9.539      0.000      0.000      100.0   
2176102101       25.606     10.256     0.000      0.000      100.0   
2176102102       25.525     10.647     0.000      0.000      100.0   
2176102201       25.348     7.099      0.000      0.000      100.0   
2176102401       26.320     5.486      0.000      0.000      100.0   
2176102501       26.474     7.227      0.000      0.000      100.0   
2176103001       24.575     10.803     0.000      0.000      100.0   
2176103101       25.738     10.755     0.000      0.000      100.0   
2176103102       26.020     9.041      0.000      0.000      100.0   
2176104003       26.791     22.064     0.000      0.000      100.0   
2176104102       26.885     10.301     0.000      0.000      100.0   
2176104103       27.112     10.471     0.000      0.000      100.0   
2176104201       27.020     6.324      0.000      0.000      100.0   
2176104301       26.500     10.963     0.000      0.000      100.0   
2176104302       27.132     8.300      0.000      0.000      100.0   
2176104601       26.774     5.865      0.000      0.000      100.0   
2176104904       26.216     4.550      0.000      0.000      100.0   
2176105101       27.608     20.479     0.000      0.000      100.0   
2176105102       28.000     14.432     0.000      0.000      100.0   
2176105103       29.485     12.949     0.000      0.000      100.0   
2176105104       29.786     16.856     0.000      0.000      100.0   
2176105301       27.226     6.169      0.000      0.000      100.0   
2176105401       27.287     6.100      0.000      0.000      100.0   
2176105601       27.000     9.432      0.000      0.000      100.0   
2176106101       30.324     16.318     0.000      0.000      100.0   
2176106102       31.096     12.024     0.000      0.000      100.0   
2176106103       31.991     10.533     0.000      0.000      100.0   
2176106201       33.000     16.246     0.000      0.000      100.0   
2176106501       27.500     6.155      0.000      0.000      100.0   
2176106601       26.200     8.232      0.000      0.000      100.0   
2176106602       26.181     11.846     0.000      0.000      100.0   
2176106603       26.154     8.947      0.000      0.000      100.0   
2176107601       26.118     6.343      0.000      0.000      100.0   
2176107101       30.800     12.945     0.000      0.000      100.0   
2176107201       30.900     8.783      0.000      0.000      100.0   
2176107202       31.000     8.650      0.000      0.000      100.0   
2176107602       26.081     6.380      0.000      0.000      100.0   
2176107701       26.047     7.368      0.000      0.000      100.0   
2176107702       26.003     6.459      0.000      0.000      100.0   
2176107703       25.955     7.458      0.000      0.000      100.0   
2176108701       25.902     4.882      0.000      0.000      100.0   
2176107801       25.400     5.059      0.000      0.000      100.0   
2176107802       25.585     4.150      0.000      0.000      100.0   
2176107803       25.699     3.742      0.000      0.000      100.0   
2176108301       31.350     6.017      0.000      0.000      100.0   
2176108401       34.000     2.534      0.000      0.000      100.0   
2176108801       25.796     5.261      0.000      0.000      100.0   
2176108702       25.959     4.505      0.000      0.000      100.0   
2176108703       26.076     10.097     0.000      0.000      100.0   
2176108704       26.254     7.731      0.000      0.000      100.0   
2176109301       28.050     4.617      0.000      0.000      100.0   
2176109302       28.037     4.702      0.000      0.000      100.0   
2177100301       28.020     5.515      0.000      0.000      100.0   
2176109701       26.391     13.613     0.000      0.000      100.0   
2176109702       26.535     12.976     0.000      0.000      100.0   
2176109703       26.650     15.144     0.000      0.000      100.0   
2176109704       26.720     8.952      0.000      0.000      100.0   
2176109705       26.839     8.721      0.000      0.000      100.0   
2176116301       27.089     3.008      0.000      0.000      100.0   
2176118002       24.211     7.108      0.000      0.000      100.0   
2176118003       24.420     6.899      0.000      0.000      100.0   
2176118004       25.044     7.664      0.000      0.000      100.0   
2176118502       27.069     6.131      0.000      0.000      100.0   
2176118503       27.274     7.772      0.000      0.000      100.0   
2176119001       25.447     7.261      0.000      0.000      100.0   
2176119002       26.140     6.712      0.000      0.000      100.0   
2176119003       26.528     5.904      0.000      0.000      100.0   
2176119101       26.300     10.132     0.000      0.000      100.0   
2176119102       26.350     10.082     0.000      0.000      100.0   
2176119901       29.998     3.069      0.000      0.000      100.0   
2176127201       30.120     3.263      0.000      0.000      100.0   
2176129501       28.500     3.754      0.000      0.000      100.0   
2176129602       27.800     4.454      0.000      0.000      100.0   
2176138202       26.278     5.239      0.000      0.000      100.0   
2176138301       32.100     3.445      0.000      0.000      100.0   
2176138401       32.400     2.300      0.000      0.000      100.0   
2177142601       35.821     4.800      0.000      0.000      100.0   
2177060001       23.601     5.020      0.000      0.000      100.0   
2177060201       23.660     4.199      0.000      0.000      100.0   
2177080101       26.000     7.655      0.000      0.000      100.0   
2177080201       26.906     8.741      0.000      0.000      100.0   
2177080304       26.895     9.878      0.000      0.000      100.0   
2177080301       26.810     14.605     0.000      0.000      100.0   
2177080404       26.791     14.641     0.000      0.000      100.0   
2177080302       26.852     12.585     0.000      0.000      100.0   
2177080303       26.873     10.651     0.000      0.000      100.0   
2177080401       26.174     7.488      0.000      0.000      100.0   
2177080501       25.970     3.818      0.000      0.000      100.0   
2177080402       26.185     10.513     0.000      0.000      100.0   
2177080403       26.585     9.302      0.000      0.000      100.0   
2177080601       25.650     6.662      0.000      0.000      100.0   
2177080602       25.670     7.239      0.000      0.000      100.0   
2177080701       25.689     7.696      0.000      0.000      100.0   
2177081102       26.939     11.900     0.000      0.000      100.0   
2177081203       26.928     13.012     0.000      0.000      100.0   
2177081103       27.002     8.725      0.000      0.000      100.0   
2177081104       27.021     4.996      0.000      0.000      100.0   
2177081105       25.553     5.840      0.000      0.000      100.0   
2177081202       26.200     8.586      0.000      0.000      100.0   
2177081701       25.709     7.787      0.000      0.000      100.0   
2177081702       25.729     7.767      0.000      0.000      100.0   
2177081703       25.745     6.867      0.000      0.000      100.0   
2177081704       25.749     6.863      0.000      0.000      100.0   
2177081705       25.752     6.860      0.000      0.000      100.0   
2177081706       25.772     5.869      0.000      0.000      100.0   
2177082101       25.586     6.705      0.000      0.000      100.0   
2177082103       25.614     7.541      0.000      0.000      100.0   
2177082701       25.791     6.409      0.000      0.000      100.0   
2177082801       25.811     8.621      0.000      0.000      100.0   
2177082802       25.831     8.601      0.000      0.000      100.0   
2177082803       25.840     13.306     0.000      0.000      100.0   
2177082804       25.843     13.303     0.000      0.000      100.0   
2177082805       25.852     13.294     0.000      0.000      100.0   
2177082806       25.872     9.343      0.000      0.000      100.0   
2177083201       25.633     8.328      0.000      0.000      100.0   
2177083202       25.652     9.117      0.000      0.000      100.0   
2177083203       25.673     5.592      0.000      0.000      100.0   
2177083801       25.892     6.618      0.000      0.000      100.0   
2177083802       25.911     9.658      0.000      0.000      100.0   
2177083901       25.923     9.646      0.000      0.000      100.0   
2177083902       25.941     7.567      0.000      0.000      100.0   
2177083903       25.951     7.557      0.000      0.000      100.0   
2177084201       25.703     5.231      0.000      0.000      100.0   
2177084301       25.776     8.196      0.000      0.000      100.0   
2177084901       25.970     8.686      0.000      0.000      100.0   
2177084902       25.990     12.315     0.000      0.000      100.0   
2177084903       26.010     15.198     0.000      0.000      100.0   
2177084904       26.017     13.455     0.000      0.000      100.0   
2177090701       27.060     10.372     0.000      0.000      100.0   
2177091701       26.934     9.381      0.000      0.000      100.0   
2177090802       27.436     9.996      0.000      0.000      100.0   
2177090803       27.311     10.775     0.000      0.000      100.0   
2177090804       27.185     9.282      0.000      0.000      100.0   
2177091702       26.817     9.201      0.000      0.000      100.0   
2177091703       26.756     5.586      0.000      0.000      100.0   
2177091704       26.745     3.464      0.000      0.000      100.0   
2177092501       26.610     3.231      0.000      0.000      100.0   
2177091705       26.762     5.580      0.000      0.000      100.0   
2177092601       26.995     3.840      0.000      0.000      100.0   
2177091708       27.004     5.338      0.000      0.000      100.0   
2177092401       26.499     19.580     0.000      0.000      100.0   
2177092402       26.470     9.962      0.000      0.000      100.0   
2177093401       26.440     5.540      0.000      0.000      100.0   
2177092403       26.910     13.577     0.000      0.000      100.0   
2177093402       26.890     9.542      0.000      0.000      100.0   
2177092504       26.588     3.253      0.000      0.000      100.0   
2177092502       26.990     3.682      0.000      0.000      100.0   
2177092503       26.990     2.851      0.000      0.000      100.0   
2177092505       26.980     2.861      0.000      0.000      100.0   
2177092506       26.558     4.220      0.000      0.000      100.0   
2177092507       26.970     2.819      0.000      0.000      100.0   
2177092508       26.529     9.590      0.000      0.000      100.0   
2177092509       26.950     3.828      0.000      0.000      100.0   
2177092510       26.930     9.189      0.000      0.000      100.0   
2177092602       26.994     5.939      0.000      0.000      100.0   
2177092603       26.994     5.939      0.000      0.000      100.0   
2177092604       26.993     3.679      0.000      0.000      100.0   
2177092605       26.991     3.681      0.000      0.000      100.0   
2177092701       27.009     11.950     0.000      0.000      100.0   
2177092702       27.013     7.200      0.000      0.000      100.0   
2177092703       27.018     7.195      0.000      0.000      100.0   
2177092801       27.023     8.072      0.000      0.000      100.0   
2177092802       27.028     4.208      0.000      0.000      100.0   
2177093201       26.322     11.366     0.000      0.000      100.0   
2177093202       26.293     8.547      0.000      0.000      100.0   
2177093203       26.264     8.232      0.000      0.000      100.0   
2177093205       26.234     5.078      0.000      0.000      100.0   
2177093204       26.790     13.453     0.000      0.000      100.0   
2177093206       26.770     7.726      0.000      0.000      100.0   
2177094101       26.204     9.393      0.000      0.000      100.0   
2177094201       26.750     7.616      0.000      0.000      100.0   
2177093301       26.411     9.488      0.000      0.000      100.0   
2177093302       26.381     8.051      0.000      0.000      100.0   
2177093304       26.352     9.057      0.000      0.000      100.0   
2177093303       26.860     9.039      0.000      0.000      100.0   
2177093305       26.840     7.837      0.000      0.000      100.0   
2177093306       26.820     8.729      0.000      0.000      100.0   
2177093307       26.800     10.888     0.000      0.000      100.0   
2177093403       26.880     12.442     0.000      0.000      100.0   
2177093801       27.033     4.203      0.000      0.000      100.0   
2177093802       27.038     7.579      0.000      0.000      100.0   
2177093803       27.043     7.366      0.000      0.000      100.0   
2177093901       27.048     4.900      0.000      0.000      100.0   
2177094001       26.116     12.777     0.000      0.000      100.0   
2177094002       26.086     8.153      0.000      0.000      100.0   
2177094004       26.057     7.146      0.000      0.000      100.0   
2177094003       26.413     12.480     0.000      0.000      100.0   
2177094005       26.292     7.947      0.000      0.000      100.0   
2177094006       26.027     13.445     0.000      0.000      100.0   
2177094007       26.163     7.614      0.000      0.000      100.0   
2177094008       26.024     13.448     0.000      0.000      100.0   
2177094102       26.175     9.302      0.000      0.000      100.0   
2177094104       26.150     9.557      0.000      0.000      100.0   
2177094103       26.730     8.969      0.000      0.000      100.0   
2177094105       26.720     8.979      0.000      0.000      100.0   
2177094106       26.130     9.577      0.000      0.000      100.0   
2177094107       26.700     7.512      0.000      0.000      100.0   
2177094108       26.530     12.902     0.000      0.000      100.0   
2177094901       27.052     9.370      0.000      0.000      100.0   
2177094902       27.057     3.957      0.000      0.000      100.0   
2177094903       27.062     5.512      0.000      0.000      100.0   
2177094904       27.066     5.475      0.000      0.000      100.0   
2177094905       27.069     4.617      0.000      0.000      100.0   
2177095001       26.027     8.590      0.000      0.000      100.0   
2177095002       26.030     10.104     0.000      0.000      100.0   
2177095003       26.031     10.103     0.000      0.000      100.0   
2177095004       26.031     10.103     0.000      0.000      100.0   
2177095005       26.033     8.546      0.000      0.000      100.0   
2177095006       26.032     8.547      0.000      0.000      100.0   
2177095007       26.035     12.157     0.000      0.000      100.0   
2177095101       26.038     11.120     0.000      0.000      100.0   
2177095901!      26.418     6.140      0.000      0.000      100.0   
2177095902!      26.411     6.147      0.000      0.000      100.0   
2177095901       26.418     6.140      0.000      0.000      100.0   
2177095902       26.411     6.147      0.000      0.000      100.0   
2177096901!      26.406     6.888      0.000      0.000      100.0   
2177096901       26.406     6.888      0.000      0.000      100.0   
2177096101       26.041     11.117     0.000      0.000      100.0   
2177096102       26.044     4.504      0.000      0.000      100.0   
2177096103       26.047     10.900     0.000      0.000      100.0   
2177096104       26.050     12.751     0.000      0.000      100.0   
2177096201       26.053     7.446      0.000      0.000      100.0   
2177096202       26.055     7.782      0.000      0.000      100.0   
2177096801!      26.133     6.199      0.000      0.000      100.0   
2177096802!      26.133     6.199      0.000      0.000      100.0   
2177096801       26.133     6.199      0.000      0.000      100.0   
2177096802       26.133     6.199      0.000      0.000      100.0   
2177096803!      26.132     6.200      0.000      0.000      100.0   
2177096803       26.132     6.200      0.000      0.000      100.0   
2177096804!      26.129     8.703      0.000      0.000      100.0   
2177096804       26.129     8.703      0.000      0.000      100.0   
2177096805!      26.129     8.703      0.000      0.000      100.0   
2177096805       26.129     8.703      0.000      0.000      100.0   
2177097806!      26.069     8.763      0.000      0.000      100.0   
2177097806       26.069     8.763      0.000      0.000      100.0   
2177096902!      26.153     7.994      0.000      0.000      100.0   
2177096902       26.153     7.994      0.000      0.000      100.0   
2177096903!      26.138     8.601      0.000      0.000      100.0   
2177096903       26.138     8.601      0.000      0.000      100.0   
2177096905!      26.135     6.197      0.000      0.000      100.0   
2177096905       26.135     6.197      0.000      0.000      100.0   
2177096904!      24.980     9.167      0.000      0.000      100.0   
2177096906!      26.134     6.198      0.000      0.000      100.0   
2177096906       26.134     6.198      0.000      0.000      100.0   
2177096907!      26.133     6.199      0.000      0.000      100.0   
2177096907       26.133     6.199      0.000      0.000      100.0   
2177097201       26.058     12.902     0.000      0.000      100.0   
2177097301       26.061     14.420     0.000      0.000      100.0   
2177097302       26.064     8.116      0.000      0.000      100.0   
2177097303       26.067     8.189      0.000      0.000      100.0   
2177097304       26.070     8.362      0.000      0.000      100.0   
2177097401       26.073     11.258     0.000      0.000      100.0   
2177097402       26.075     11.256     0.000      0.000      100.0   
2177097601       26.104     16.020     0.000      0.000      100.0   
2177097602       26.103     16.021     0.000      0.000      100.0   
2177097603       26.101     6.735      0.000      0.000      100.0   
2177097604       26.101     6.735      0.000      0.000      100.0   
2177097605       26.098     6.199      0.000      0.000      100.0   
2177097606       26.096     6.201      0.000      0.000      100.0   
2177097607       26.095     6.637      0.000      0.000      100.0   
2177098504       26.091     11.065     0.000      0.000      100.0   
2177097701       26.111     12.786     0.000      0.000      100.0   
2177097703       26.107     12.413     0.000      0.000      100.0   
2177097702       26.113     12.131     0.000      0.000      100.0   
2177097704       26.115     6.289      0.000      0.000      100.0   
2177097802       26.124     8.577      0.000      0.000      100.0   
2177097803       26.121     6.803      0.000      0.000      100.0   
2177097805       26.120     5.539      0.000      0.000      100.0   
2177097804       26.118     6.806      0.000      0.000      100.0   
2177097901!      26.059     7.475      0.000      0.000      100.0   
2177097901       26.059     7.475      0.000      0.000      100.0   
2177098901!      26.056     5.235      0.000      0.000      100.0   
2177098901       26.056     5.235      0.000      0.000      100.0   
2177098401       26.078     6.376      0.000      0.000      100.0   
2177098402       26.080     6.244      0.000      0.000      100.0   
2177098403       26.081     6.243      0.000      0.000      100.0   
2177098404       26.081     6.243      0.000      0.000      100.0   
2177098405       26.082     6.242      0.000      0.000      100.0   
2177098406       26.312     6.143      0.000      0.000      100.0   
2177098407       26.318     7.559      0.000      0.000      100.0   
2177098501       26.082     11.975     0.000      0.000      100.0   
2177098502       26.084     11.973     0.000      0.000      100.0   
2177098503       26.087     17.295     0.000      0.000      100.0   
2177098506       26.090     12.767     0.000      0.000      100.0   
2177098505       26.088     17.294     0.000      0.000      100.0   
2177098507       26.970     11.887     0.000      0.000      100.0   
2177098508       26.975     6.160      0.000      0.000      100.0   
2177098509       26.982     6.153      0.000      0.000      100.0   
2177098601       27.000     10.909     0.000      0.000      100.0   
2177098602       27.008     11.335     0.000      0.000      100.0   
2177098603       27.012     8.253      0.000      0.000      100.0   
2177098801       26.700     4.431      0.000      0.000      100.0   
2177098802       26.800     3.830      0.000      0.000      100.0   
2177098803       26.817     2.855      0.000      0.000      100.0   
2178100001!      26.042     6.732      0.000      0.000      100.0   
2178100001       26.042     6.732      0.000      0.000      100.0   
2177098902       26.828     3.353      0.000      0.000      100.0   
2177099401       26.326     7.842      0.000      0.000      100.0   
2177099402       26.333     6.403      0.000      0.000      100.0   
2177099403       26.341     8.275      0.000      0.000      100.0   
2177099404       26.349     8.046      0.000      0.000      100.0   
2177099601       27.014     7.699      0.000      0.000      100.0   
2177099602       27.022     7.444      0.000      0.000      100.0   
2177099603       27.042     9.530      0.000      0.000      100.0   
2177100302       28.006     4.426      0.000      0.000      100.0   
2177100303       27.983     4.544      0.000      0.000      100.0   
2177100304       27.983     4.544      0.000      0.000      100.0   
2177100305       27.938     4.494      0.000      0.000      100.0   
2177101201       27.895     4.380      0.000      0.000      100.0   
2177100701       26.990     6.546      0.000      0.000      100.0   
2177100702       27.145     6.534      0.000      0.000      100.0   
2177100703       27.295     7.137      0.000      0.000      100.0   
2177100704       27.438     6.994      0.000      0.000      100.0   
2177101202       27.847     4.243      0.000      0.000      100.0   
2177101203       27.797     4.143      0.000      0.000      100.0   
2177101204       27.734     4.051      0.000      0.000      100.0   
2177102201       27.682     4.115      0.000      0.000      100.0   
2177101701       27.470     6.889      0.000      0.000      100.0   
2177101702       27.500     5.491      0.000      0.000      100.0   
2177101703       27.520     11.042     0.000      0.000      100.0   
2177101704       27.550     11.012     0.000      0.000      100.0   
2177101705       27.580     11.838     0.000      0.000      100.0   
2177102202       27.609     5.047      0.000      0.000      100.0   
2177102203       27.589     5.067      0.000      0.000      100.0   
2177102204       27.519     6.188      0.000      0.000      100.0   
2177103201       27.490     5.832      0.000      0.000      100.0   
2177102205       27.607     7.155      0.000      0.000      100.0   
2177102301       27.650     7.427      0.000      0.000      100.0   
2177102302       27.637     8.471      0.000      0.000      100.0   
2177102303       27.624     8.484      0.000      0.000      100.0   
2177102304       27.616     7.146      0.000      0.000      100.0   
2177102701       27.700     13.534     0.000      0.000      100.0   
2177102702       27.900     13.715     0.000      0.000      100.0   
2177102703       28.495     13.120     0.000      0.000      100.0   
2177102704       28.591     13.024     0.000      0.000      100.0   
2177103001       27.240     6.730      0.000      0.000      100.0   
2177104001       27.194     11.559     0.000      0.000      100.0   
2177103101       27.415     5.907      0.000      0.000      100.0   
2177103102       27.383     4.964      0.000      0.000      100.0   
2177103103       27.331     4.633      0.000      0.000      100.0   
2177103104       27.295     4.970      0.000      0.000      100.0   
2177103105       27.291     4.974      0.000      0.000      100.0   
2177103106       27.284     6.686      0.000      0.000      100.0   
2177103202       27.482     5.840      0.000      0.000      100.0   
2177103203       27.469     5.853      0.000      0.000      100.0   
2177103301       26.924     8.128      0.000      0.000      100.0   
2177103302       26.873     8.167      0.000      0.000      100.0   
2177104301!      26.822     7.907      0.000      0.000      100.0   
2177104301       26.822     7.907      0.000      0.000      100.0   
2177104002       27.169     11.584     0.000      0.000      100.0   
2177104003       27.146     3.975      0.000      0.000      100.0   
2177104004       27.136     4.034      0.000      0.000      100.0   
2177104006       27.128     4.042      0.000      0.000      100.0   
2177104005       27.174     4.388      0.000      0.000      100.0   
2177104007       27.101     4.069      0.000      0.000      100.0   
2177104008       27.072     4.614      0.000      0.000      100.0   
2177104009       27.066     4.620      0.000      0.000      100.0   
2177104010       27.064     4.622      0.000      0.000      100.0   
2177104101       27.180     6.834      0.000      0.000      100.0   
2177104102       27.190     9.791      0.000      0.000      100.0   
2177104103       27.187     9.794      0.000      0.000      100.0   
2177104104       27.194     10.733     0.000      0.000      100.0   
2177104105       27.199     8.751      0.000      0.000      100.0   
2177104201       27.205     7.518      0.000      0.000      100.0   
2177104203       27.202     8.748      0.000      0.000      100.0   
2177104302!      26.779     7.530      0.000      0.000      100.0   
2177104302       26.779     7.530      0.000      0.000      100.0   
2177105319!      26.747     5.826      0.000      0.000      100.0   
2177105319       26.747     5.826      0.000      0.000      100.0   
2177105006!      26.436     4.399      0.000      0.000      100.0   
2177105007!      26.433     4.402      0.000      0.000      100.0   
2177105006       26.215     4.620      0.000      0.000      100.0   
2177105007       26.433     4.402      0.000      0.000      100.0   
2177105008!      26.429     4.406      0.000      0.000      100.0   
2177105008       26.429     4.406      0.000      0.000      100.0   
2177105009!      26.428     4.407      0.000      0.000      100.0   
2177105009       26.428     4.407      0.000      0.000      100.0   
2177105010!      26.427     5.790      0.000      0.000      100.0   
2177105010       26.427     5.790      0.000      0.000      100.0   
2177105011!      26.425     5.792      0.000      0.000      100.0   
2177105011       26.425     5.792      0.000      0.000      100.0   
2177105012!      26.422     5.795      0.000      0.000      100.0   
2177105012       26.422     5.795      0.000      0.000      100.0   
2177105013!      26.264     8.178      0.000      0.000      100.0   
2177105014!      26.243     7.906      0.000      0.000      100.0   
2177105013       26.264     8.178      0.000      0.000      100.0   
2177105014       26.243     7.906      0.000      0.000      100.0   
2177105015!      26.230     7.919      0.000      0.000      100.0   
2177105015       26.230     7.919      0.000      0.000      100.0   
2177105017!      26.455     4.380      0.000      0.000      100.0   
2177105017       26.223     4.612      0.000      0.000      100.0   
2177105101!      26.328     7.433      0.000      0.000      100.0   
2177105102!      26.307     7.476      0.000      0.000      100.0   
2177105101       26.328     7.433      0.000      0.000      100.0   
2177105102       26.307     7.476      0.000      0.000      100.0   
2177105103!      26.285     7.338      0.000      0.000      100.0   
2177105103       26.285     7.338      0.000      0.000      100.0   
2177105202!      26.370     5.038      0.000      0.000      100.0   
2177105203!      26.349     5.976      0.000      0.000      100.0   
2177105202       26.370     5.038      0.000      0.000      100.0   
2177105203       26.349     5.976      0.000      0.000      100.0   
2177105204!      26.392     5.531      0.000      0.000      100.0   
2177105204       26.392     5.531      0.000      0.000      100.0   
2177105303!      26.770     5.803      0.000      0.000      100.0   
2177105308!      26.762     5.811      0.000      0.000      100.0   
2177105304!      26.787     5.868      0.000      0.000      100.0   
2177105320!      26.779     5.876      0.000      0.000      100.0   
2177105305!      26.731     5.191      0.000      0.000      100.0   
2177105310!      26.434     5.472      0.000      0.000      100.0   
2177105305       26.731     5.191      0.000      0.000      100.0   
2177105310       26.434     5.472      0.000      0.000      100.0   
2177105306!      26.740     5.182      0.000      0.000      100.0   
2177105306       26.740     5.182      0.000      0.000      100.0   
2177105307!      26.755     5.818      0.000      0.000      100.0   
2177105312!      26.745     5.687      0.000      0.000      100.0   
2177105309!      26.794     5.638      0.000      0.000      100.0   
2177105311!      26.428     5.478      0.000      0.000      100.0   
2177105311       26.428     5.478      0.000      0.000      100.0   
2177105313!      26.427     5.479      0.000      0.000      100.0   
2177105313       26.427     5.479      0.000      0.000      100.0   
2177105315!      26.447     5.459      0.000      0.000      100.0   
2177105315       26.447     5.459      0.000      0.000      100.0   
2177105314!      26.413     5.534      0.000      0.000      100.0   
2177105314       26.413     5.534      0.000      0.000      100.0   
2177105316!      26.454     5.978      0.000      0.000      100.0   
2177105316       26.454     5.978      0.000      0.000      100.0   
2177105317!      26.476     7.481      0.000      0.000      100.0   
2177105317       26.476     7.481      0.000      0.000      100.0   
2177105318!      26.497     6.886      0.000      0.000      100.0   
2177105318       26.497     6.886      0.000      0.000      100.0   
2177105401!      26.807     5.625      0.000      0.000      100.0   
2177105402!      26.822     5.610      0.000      0.000      100.0   
2177105403!      26.833     5.599      0.000      0.000      100.0   
2177105404!      26.849     6.871      0.000      0.000      100.0   
2177105405!      26.866     5.608      0.000      0.000      100.0   
2177105406!      26.889     5.676      0.000      0.000      100.0   
2177105407!      26.908     5.657      0.000      0.000      100.0   
2177105408!      26.906     5.659      0.000      0.000      100.0   
2177105501!      26.951     8.074      0.000      0.000      100.0   
2177105502!      26.928     5.256      0.000      0.000      100.0   
2177106401!      26.517     6.866      0.000      0.000      100.0   
2177106401       26.517     6.866      0.000      0.000      100.0   
2177106402!      26.538     5.370      0.000      0.000      100.0   
2177106402       26.538     5.370      0.000      0.000      100.0   
2177106403!      26.559     5.869      0.000      0.000      100.0   
2177106403       26.559     5.869      0.000      0.000      100.0   
2177106404!      26.580     5.831      0.000      0.000      100.0   
2177106404       26.580     5.831      0.000      0.000      100.0   
2177107401!      26.602     6.830      0.000      0.000      100.0   
2177107401       26.602     6.830      0.000      0.000      100.0   
2177107501!      26.623     8.851      0.000      0.000      100.0   
2177107501       26.623     8.851      0.000      0.000      100.0   
2177107502!      26.644     9.699      0.000      0.000      100.0   
2177107502       26.644     9.699      0.000      0.000      100.0   
2177107503!      26.666     22.173     0.000      0.000      100.0   
2177107503       26.666     22.173     0.000      0.000      100.0   
2177108501!      26.687     5.499      0.000      0.000      100.0   
2177108501       26.687     5.499      0.000      0.000      100.0   
2177108502!      26.708     9.365      0.000      0.000      100.0   
2177108502       26.708     9.365      0.000      0.000      100.0   
2177108503!      26.729     11.134     0.000      0.000      100.0   
2177108503       26.729     11.134     0.000      0.000      100.0   
2177108601!      26.735     9.554      0.000      0.000      100.0   
2177108601       26.735     9.554      0.000      0.000      100.0   
2177108602!      26.740     6.705      0.000      0.000      100.0   
2177108602       26.740     6.705      0.000      0.000      100.0   
2177109601!      26.793     11.108     0.000      0.000      100.0   
2177109601       26.793     11.108     0.000      0.000      100.0   
2177109602!      26.815     8.621      0.000      0.000      100.0   
2177109602       26.815     8.621      0.000      0.000      100.0   
2177109603!      26.836     6.121      0.000      0.000      100.0   
2177109603       26.836     6.121      0.000      0.000      100.0   
2177109701!      26.857     6.119      0.000      0.000      100.0   
2177109701       26.857     6.119      0.000      0.000      100.0   
2177109801!      27.456     6.976      0.000      0.000      100.0   
2177109802!      27.447     6.985      0.000      0.000      100.0   
2177109801       27.456     6.976      0.000      0.000      100.0   
2177109802       27.447     6.985      0.000      0.000      100.0   
2177109803!      27.408     7.024      0.000      0.000      100.0   
2177109803       27.408     7.024      0.000      0.000      100.0   
2177109804!      27.398     7.034      0.000      0.000      100.0   
2177109804       27.398     7.034      0.000      0.000      100.0   
2178100801!      27.358     10.994     0.000      0.000      100.0   
2178100801       27.358     10.994     0.000      0.000      100.0   
2177109901!      27.553     6.004      0.000      0.000      100.0   
2177109902!      27.504     8.483      0.000      0.000      100.0   
2177109901       27.553     6.004      0.000      0.000      100.0   
2177109902       27.504     8.483      0.000      0.000      100.0   
2177110001       26.766     5.666      0.000      0.000      100.0   
2177110002       26.825     11.607     0.000      0.000      100.0   
2177110003       26.914     8.538      0.000      0.000      100.0   
2177110101       26.976     11.448     0.000      0.000      100.0   
2177110102       26.450     6.018      0.000      0.000      100.0   
2177110103       27.160     6.256      0.000      0.000      100.0   
2177110104       27.000     5.468      0.000      0.000      100.0   
2177110501       28.066     12.110     0.000      0.000      100.0   
2177110601       28.502     14.294     0.000      0.000      100.0   
2177110602       28.550     14.471     0.000      0.000      100.0   
2177111101       27.564     6.251      0.000      0.000      100.0   
2177111201       27.221     10.514     0.000      0.000      100.0   
2177111202       27.283     13.193     0.000      0.000      100.0   
2177111203       27.581     11.953     0.000      0.000      100.0   
2177111301       27.877     8.665      0.000      0.000      100.0   
2177111302       28.174     10.841     0.000      0.000      100.0   
2177111303       28.472     10.251     0.000      0.000      100.0   
2177111304       28.591     10.132     0.000      0.000      100.0   
2177112301       28.600     8.107      0.000      0.000      100.0   
2177112401       28.773     7.934      0.000      0.000      100.0   
2177112402       28.962     7.958      0.000      0.000      100.0   
2177112403       29.156     10.239     0.000      0.000      100.0   
2177112404       29.234     11.198     0.000      0.000      100.0   
2177112405       29.372     11.060     0.000      0.000      100.0   
2177112406       29.646     14.866     0.000      0.000      100.0   
2177112407       29.500     10.559     0.000      0.000      100.0   
2177113401       29.864     10.601     0.000      0.000      100.0   
2177113402       29.920     7.474      0.000      0.000      100.0   
2177113501       30.100     11.042     0.000      0.000      100.0   
2177113503       30.082     15.233     0.000      0.000      100.0   
2177113505       30.010     12.270     0.000      0.000      100.0   
2177113504       30.131     10.965     0.000      0.000      100.0   
2177113602       30.165     8.601      0.000      0.000      100.0   
2177113603       30.338     9.285      0.000      0.000      100.0   
2177113604       30.371     9.252      0.000      0.000      100.0   
2177113605       31.039     6.650      0.000      0.000      100.0   
2177113701       31.097     3.625      0.000      0.000      100.0   
2177113702       30.650     4.663      0.000      0.000      100.0   
2177113703       31.168     4.145      0.000      0.000      100.0   
2177113801       31.330     4.961      0.000      0.000      100.0   
2177113802       31.235     5.895      0.000      0.000      100.0   
2177113803       31.970     6.477      0.000      0.000      100.0   
2177113804       31.300     7.147      0.000      0.000      100.0   
2177114501       30.380     7.543      0.000      0.000      100.0   
2177114502       30.869     10.190     0.000      0.000      100.0   
2177114503       30.540     9.892      0.000      0.000      100.0   
2177115501       31.464     5.838      0.000      0.000      100.0   
2177115502       31.290     8.033      0.000      0.000      100.0   
2177116202!      27.916     4.563      0.000      0.000      100.0   
2177116201       27.992     8.493      0.000      0.000      100.0   
2177116202       27.916     4.563      0.000      0.000      100.0   
2177117101!      27.843     9.719      0.000      0.000      100.0   
2177117101       27.843     9.719      0.000      0.000      100.0   
2177116502       31.978     4.759      0.000      0.000      100.0   
2177116503       32.110     5.837      0.000      0.000      100.0   
2177116504       32.217     6.215      0.000      0.000      100.0   
2177116701       32.688     4.744      0.000      0.000      100.0   
2177116702       32.567     4.865      0.000      0.000      100.0   
2177118101!      27.777     9.249      0.000      0.000      100.0   
2177118101       27.777     9.249      0.000      0.000      100.0   
2177117801       33.373     7.064      0.000      0.000      100.0   
2177117802       33.410     7.027      0.000      0.000      100.0   
2177117803       33.859     9.600      0.000      0.000      100.0   
2177117804       34.100     9.359      0.000      0.000      100.0   
2177118001!      27.703     7.219      0.000      0.000      100.0   
2177119001!      27.635     5.486      0.000      0.000      100.0   
2177118001       27.703     7.219      0.000      0.000      100.0   
2177119001       27.635     5.486      0.000      0.000      100.0   
2177118801       39.110     12.807     0.000      0.000      100.0   
2177119002!      27.607     7.438      0.000      0.000      100.0   
2177119002       27.607     7.438      0.000      0.000      100.0   
2177119801       40.480     8.946      0.000      0.000      100.0   
2177120501       29.000     4.733      0.000      0.000      100.0   
2177120601       29.600     2.677      0.000      0.000      100.0   
2177120602       29.780     3.922      0.000      0.000      100.0   
2177121801       26.474     5.355      0.000      0.000      100.0   
2177121802       27.144     5.800      0.000      0.000      100.0   
2177121803       27.945     6.487      0.000      0.000      100.0   
2177122801       28.138     5.384      0.000      0.000      100.0   
2177122802       28.303     4.261      0.000      0.000      100.0   
2177122803       28.470     6.821      0.000      0.000      100.0   
2177123801       28.600     8.067      0.000      0.000      100.0   
2177123802       28.701     10.056     0.000      0.000      100.0   
2177123803       28.752     11.151     0.000      0.000      100.0   
2177123901       28.757     9.532      0.000      0.000      100.0   
2177123902       29.137     6.019      0.000      0.000      100.0   
2177123903       29.242     7.096      0.000      0.000      100.0   
2177123904       29.348     6.882      0.000      0.000      100.0   
2177124901       29.479     7.174      0.000      0.000      100.0   
2177124902       29.544     7.465      0.000      0.000      100.0   
2177124903       29.611     7.398      0.000      0.000      100.0   
2177124904       29.736     10.310     0.000      0.000      100.0   
2177124905       29.842     9.902      0.000      0.000      100.0   
2177129001       44.288     8.243      0.000      0.000      100.0   
2178110902       44.079     6.582      0.000      0.000      100.0   
2177129101       44.660     10.211     0.000      0.000      100.0   
2177131601       31.693     10.543     0.000      0.000      100.0   
2177131701       32.588     13.728     0.000      0.000      100.0   
2177134001       30.084     15.430     0.000      0.000      100.0   
2177134002       29.988     10.001     0.000      0.000      100.0   
2177134003       30.197     11.856     0.000      0.000      100.0   
2177135001       30.308     19.188     0.000      0.000      100.0   
2177135101       30.429     11.980     0.000      0.000      100.0   
2177135102       30.525     8.509      0.000      0.000      100.0   
2177135103       30.574     6.858      0.000      0.000      100.0   
2177135104       30.607     9.045      0.000      0.000      100.0   
2177135201       30.640     21.315     0.000      0.000      100.0   
2177135202       30.642     22.153     0.000      0.000      100.0   
2177136201       30.644     22.151     0.000      0.000      100.0   
2177136202       30.649     22.463     0.000      0.000      100.0   
2177136203       30.653     22.459     0.000      0.000      100.0   
2177136204       30.655     22.457     0.000      0.000      100.0   
2177136205       30.657     9.155      0.000      0.000      100.0   
2177136206       30.660     9.152      0.000      0.000      100.0   
2177136207       30.662     7.300      0.000      0.000      100.0   
2177137201       30.667     7.295      0.000      0.000      100.0   
2177137202       30.694     9.738      0.000      0.000      100.0   
2177137203       30.753     9.679      0.000      0.000      100.0   
2177137204       30.804     9.460      0.000      0.000      100.0   
2177137205       30.894     9.370      0.000      0.000      100.0   
2177137206       30.989     5.937      0.000      0.000      100.0   
2177137207       31.027     5.899      0.000      0.000      100.0   
2177137301       32.000     7.432      0.000      0.000      100.0   
2177138201       31.134     6.050      0.000      0.000      100.0   
2177138202       31.235     8.111      0.000      0.000      100.0   
2177138203       31.340     10.092     0.000      0.000      100.0   
2177138204       31.385     10.047     0.000      0.000      100.0   
2177138205       31.414     10.018     0.000      0.000      100.0   
2177138206       31.440     9.992      0.000      0.000      100.0   
2177138401       32.300     6.351      0.000      0.000      100.0   
2177138501       32.700     7.334      0.000      0.000      100.0   
2177138502       33.197     8.075      0.000      0.000      100.0   
2177138601       33.771     8.252      0.000      0.000      100.0   
2177138602       33.938     7.532      0.000      0.000      100.0   
2177138603       34.026     7.444      0.000      0.000      100.0   
2177138604       34.133     7.337      0.000      0.000      100.0   
2177138801       34.041     14.774     0.000      0.000      100.0   
2177138904       33.682     22.661     0.000      0.000      100.0   
2177138901       31.400     13.284     0.000      0.000      100.0   
2177147005       31.183     9.032      0.000      0.000      100.0   
2177138903       31.500     18.830     0.000      0.000      100.0   
2177139201       31.528     9.904      0.000      0.000      100.0   
2177139202       31.543     9.889      0.000      0.000      100.0   
2177139203       31.586     9.846      0.000      0.000      100.0   
2177139301       31.689     10.152     0.000      0.000      100.0   
2177139302       31.650     10.191     0.000      0.000      100.0   
2177139303       31.747     9.153      0.000      0.000      100.0   
2177139304       31.856     8.055      0.000      0.000      100.0   
2177139305       31.804     9.096      0.000      0.000      100.0   
2177139306       31.893     8.018      0.000      0.000      100.0   
2177139307       31.953     7.479      0.000      0.000      100.0   
2177139401       32.051     7.643      0.000      0.000      100.0   
2177139402       32.151     6.235      0.000      0.000      100.0   
2177139502       32.954     8.944      0.000      0.000      100.0   
2177139503       32.917     8.993      0.000      0.000      100.0   
2177139510       32.600     7.834      0.000      0.000      100.0   
2177139504       33.326     8.584      0.000      0.000      100.0   
2177139505       33.604     8.361      0.000      0.000      100.0   
2177139506       33.974     7.458      0.000      0.000      100.0   
2177139509       33.884     8.081      0.000      0.000      100.0   
2177139507       33.794     8.171      0.000      0.000      100.0   
2177139508       34.097     7.335      0.000      0.000      100.0   
2178130402       32.547     7.887      0.000      0.000      100.0   
2177139511       34.282     7.150      0.000      0.000      100.0   
2177139601       34.194     7.318      0.000      0.000      100.0   
2177139602       34.271     7.241      0.000      0.000      100.0   
2177139604       34.236     7.276      0.000      0.000      100.0   
2177139603       34.219     7.293      0.000      0.000      100.0   
2177139605       34.291     7.141      0.000      0.000      100.0   
2177139701       34.300     8.257      0.000      0.000      100.0   
2177139702       34.325     8.232      0.000      0.000      100.0   
2177139703       34.379     7.654      0.000      0.000      100.0   
2177139704       34.427     7.005      0.000      0.000      100.0   
2177139705       34.463     7.023      0.000      0.000      100.0   
2177139706       34.523     6.963      0.000      0.000      100.0   
2177139708       34.595     6.837      0.000      0.000      100.0   
2177143401       34.862     14.947     0.000      0.000      100.0   
2177143801       37.493     5.848      0.000      0.000      100.0   
2177145201       33.747     9.149      0.000      0.000      100.0   
2177145101       33.655     11.621     0.000      0.000      100.0   
2177147001       30.879     7.371      0.000      0.000      100.0   
2177147003       31.075     8.974      0.000      0.000      100.0   
2177155201       36.829     4.603      0.000      0.000      100.0   
2177155401       37.761     21.761     0.000      0.000      100.0   
2177155501       37.969     20.231     0.000      0.000      100.0   
2177155601       39.548     10.331     0.000      0.000      100.0   
2177156901       43.860     15.232     0.000      0.000      100.0   
2177157701       40.250     8.852      0.000      0.000      100.0   
2177163301       41.564     8.478      0.000      0.000      100.0   
2177164101       44.632     4.205      0.000      0.000      100.0   
2178090402       26.364     5.047      0.000      0.000      100.0   
2178090401       26.356     8.069      0.000      0.000      100.0   
2178090601       27.075     9.497      0.000      0.000      100.0   
2178090602       27.090     9.797      0.000      0.000      100.0   
2178090603       27.110     9.004      0.000      0.000      100.0   
2178091403       26.783     6.881      0.000      0.000      100.0   
2178091501       26.758     8.899      0.000      0.000      100.0   
2178091502       26.739     21.575     0.000      0.000      100.0   
2178091503       26.724     12.700     0.000      0.000      100.0   
2178092501       26.702     13.176     0.000      0.000      100.0   
2178091601       27.130     8.839      0.000      0.000      100.0   
2178091602       27.149     9.503      0.000      0.000      100.0   
2178091603       27.169     9.211      0.000      0.000      100.0   
2178092601!      26.687     8.102      0.000      0.000      100.0   
2178092602!      26.658     3.782      0.000      0.000      100.0   
2178092603!      26.658     3.782      0.000      0.000      100.0   
2178092604       26.587     9.423      0.000      0.000      100.0   
2178092701       26.553     9.416      0.000      0.000      100.0   
2178092702       26.519     9.450      0.000      0.000      100.0   
2178093701       26.493     9.158      0.000      0.000      100.0   
2178093601       26.399     13.121     0.000      0.000      100.0   
2178093703       26.353     19.954     0.000      0.000      100.0   
2178093702       26.446     9.205      0.000      0.000      100.0   
2178093704       26.300     20.259     0.000      0.000      100.0   
2178093705       26.263     21.119     0.000      0.000      100.0   
2178094701       26.223     23.314     0.000      0.000      100.0   
2178094801       26.186     18.777     0.000      0.000      100.0   
2178094802       26.158     29.214     0.000      0.000      100.0   
2178094803       26.127     23.311     0.000      0.000      100.0   
2178094804       26.100     14.899     0.000      0.000      100.0   
2178094901       26.073     13.364     0.000      0.000      100.0   
2178095901       26.052     21.371     0.000      0.000      100.0   
2178095902       26.039     9.516      0.000      0.000      100.0   
2178095905       25.958     21.725     0.000      0.000      100.0   
2178097801       25.829     13.171     0.000      0.000      100.0   
2178098801       25.694     3.316      0.000      0.000      100.0   
2178099701       25.483     9.351      0.000      0.000      100.0   
2179090701       25.396     18.015     0.000      0.000      100.0   
2178101101!      26.033     5.816      0.000      0.000      100.0   
2178101101       26.033     5.816      0.000      0.000      100.0   
2178100701!      26.878     6.033      0.000      0.000      100.0   
2178100701       26.878     6.033      0.000      0.000      100.0   
2178100702!      27.317     4.605      0.000      0.000      100.0   
2178100704!      26.900     6.011      0.000      0.000      100.0   
2178100702       27.317     4.605      0.000      0.000      100.0   
2178100704       26.900     6.011      0.000      0.000      100.0   
2178100703!      26.893     6.018      0.000      0.000      100.0   
2178100703       26.893     6.018      0.000      0.000      100.0   
2178100705!      27.277     5.854      0.000      0.000      100.0   
2178100705       27.277     5.854      0.000      0.000      100.0   
2178100706!      28.027     2.933      0.000      0.000      100.0   
2178100707!      28.006     3.651      0.000      0.000      100.0   
2178100706       28.027     2.933      0.000      0.000      100.0   
2178100707       28.006     3.651      0.000      0.000      100.0   
2178100708!      27.283     4.374      0.000      0.000      100.0   
2178100708       27.283     4.374      0.000      0.000      100.0   
2178100709!      27.301     4.063      0.000      0.000      100.0   
2178100709       27.301     4.063      0.000      0.000      100.0   
2178100802!      28.048     3.424      0.000      0.000      100.0   
2178100802       28.048     3.424      0.000      0.000      100.0   
2178100803!      28.089     8.868      0.000      0.000      100.0   
2178100804!      28.068     5.435      0.000      0.000      100.0   
2178100803       28.089     8.868      0.000      0.000      100.0   
2178100804       28.068     5.435      0.000      0.000      100.0   
2178100901!      28.110     10.260     0.000      0.000      100.0   
2178100901       28.110     10.260     0.000      0.000      100.0   
2178100902!      28.189     9.611      0.000      0.000      100.0   
2178100902       28.189     9.611      0.000      0.000      100.0   
2178100903!      28.298     8.780      0.000      0.000      100.0   
2178100904!      28.191     9.491      0.000      0.000      100.0   
2178100903       28.298     8.780      0.000      0.000      100.0   
2178100904       28.191     9.491      0.000      0.000      100.0   
2178102201!      26.020     5.220      0.000      0.000      100.0   
2178102201       26.020     5.220      0.000      0.000      100.0   
2178101701!      27.327     3.105      0.000      0.000      100.0   
2178101701       27.327     3.105      0.000      0.000      100.0   
2178101801!      27.348     4.379      0.000      0.000      100.0   
2178101801       27.348     4.379      0.000      0.000      100.0   
2178101802!      27.373     4.987      0.000      0.000      100.0   
2178101802       27.373     4.987      0.000      0.000      100.0   
2178101803!      27.404     5.454      0.000      0.000      100.0   
2178101803       27.404     5.454      0.000      0.000      100.0   
2178101804!      27.439     5.588      0.000      0.000      100.0   
2178101804       27.439     5.588      0.000      0.000      100.0   
2178104301!      26.011     6.421      0.000      0.000      100.0   
2178104301       26.011     6.421      0.000      0.000      100.0   
2178102801!      27.463     5.969      0.000      0.000      100.0   
2178102801       27.463     5.969      0.000      0.000      100.0   
2178102901!      27.489     5.456      0.000      0.000      100.0   
2178102901       27.489     5.456      0.000      0.000      100.0   
2178102902!      27.561     5.058      0.000      0.000      100.0   
2178102903!      27.544     5.349      0.000      0.000      100.0   
2178102902       27.561     5.058      0.000      0.000      100.0   
2178102903       27.544     5.349      0.000      0.000      100.0   
2178102904!      27.518     5.465      0.000      0.000      100.0   
2178102904       27.518     5.465      0.000      0.000      100.0   
2178104401!      26.005     6.118      0.000      0.000      100.0   
2178104401       26.005     6.118      0.000      0.000      100.0   
2178105401!      26.001     5.232      0.000      0.000      100.0   
2178105101       25.976     6.878      0.000      0.000      100.0   
2178105103       26.012     17.036     0.000      0.000      100.0   
2178105102       25.977     5.519      0.000      0.000      100.0   
2178106101       25.998     31.099     0.000      0.000      100.0   
2178105104       25.979     6.433      0.000      0.000      100.0   
2178105301       25.995     5.864      0.000      0.000      100.0   
2178106204       25.987     6.346      0.000      0.000      100.0   
2178106005       25.956     31.452     0.000      0.000      100.0   
2178106004       25.970     31.438     0.000      0.000      100.0   
2178106006       25.956     20.545     0.000      0.000      100.0   
2178107101       25.947     16.560     0.000      0.000      100.0   
2178106102       25.987     31.110     0.000      0.000      100.0   
2178106103       25.979     49.382     0.000      0.000      100.0   
2178106201       25.981     5.350      0.000      0.000      100.0   
2178106202       25.983     7.387      0.000      0.000      100.0   
2178106203       25.985     5.593      0.000      0.000      100.0   
2178107102       25.939     12.035     0.000      0.000      100.0   
2178107103       25.930     12.223     0.000      0.000      100.0   
2178108101       25.926     9.331      0.000      0.000      100.0   
2178108102       25.917     8.383      0.000      0.000      100.0   
2178108103       25.908     8.392      0.000      0.000      100.0   
2178108104       25.896     8.639      0.000      0.000      100.0   
2178109001       25.889     10.180     0.000      0.000      100.0   
2178109002       25.880     10.302     0.000      0.000      100.0   
2178109101       25.873     9.470      0.000      0.000      100.0   
2178109102       25.864     6.722      0.000      0.000      100.0   
2179100101       25.856     6.730      0.000      0.000      100.0   
2178109601       26.798     10.552     0.000      0.000      100.0   
2179101601       26.555     22.170     0.000      0.000      100.0   
2178109701       26.902     9.239      0.000      0.000      100.0   
2178110001!      28.403     8.666      0.000      0.000      100.0   
2178110001       28.403     8.666      0.000      0.000      100.0   
2178110002!      28.506     8.136      0.000      0.000      100.0   
2178110002       28.506     8.136      0.000      0.000      100.0   
2178110003!      28.613     6.999      0.000      0.000      100.0   
2178110003       28.613     6.999      0.000      0.000      100.0   
2178110101!      28.912     17.875     0.000      0.000      100.0   
2178110102!      28.807     15.404     0.000      0.000      100.0   
2178110101       28.912     17.875     0.000      0.000      100.0   
2178110102       28.807     15.404     0.000      0.000      100.0   
2178110103!      28.706     11.756     0.000      0.000      100.0   
2178110103       28.706     11.756     0.000      0.000      100.0   
2178110104!      28.621     8.186      0.000      0.000      100.0   
2178110104       28.621     8.186      0.000      0.000      100.0   
2178110105!      28.618     6.994      0.000      0.000      100.0   
2178110105       28.618     6.994      0.000      0.000      100.0   
2178110201!      30.383     9.401      0.000      0.000      100.0   
2178110202!      30.033     8.043      0.000      0.000      100.0   
2178110201       30.383     9.401      0.000      0.000      100.0   
2178110202       30.033     8.043      0.000      0.000      100.0   
2178110204!      29.434     9.593      0.000      0.000      100.0   
2178110204       29.434     9.593      0.000      0.000      100.0   
2178110203!      29.014     15.666     0.000      0.000      100.0   
2178110203       29.014     15.666     0.000      0.000      100.0   
2178110301!      30.583     10.543     0.000      0.000      100.0   
2178110301       30.583     10.543     0.000      0.000      100.0   
2178110302!      30.734     12.911     0.000      0.000      100.0   
2178110302       30.734     12.911     0.000      0.000      100.0   
2178110303!      30.887     12.545     0.000      0.000      100.0   
2178110303       30.887     12.545     0.000      0.000      100.0   
2178110304!      27.884     9.217      0.000      0.000      100.0   
2178111302!      27.828     14.887     0.000      0.000      100.0   
2178110304       27.884     9.217      0.000      0.000      100.0   
2178111302       27.828     14.887     0.000      0.000      100.0   
2178110401!      31.156     11.743     0.000      0.000      100.0   
2178110401       31.156     11.743     0.000      0.000      100.0   
2178110402!      31.536     9.641      0.000      0.000      100.0   
2178110402       31.536     9.641      0.000      0.000      100.0   
2178110403!      31.809     8.623      0.000      0.000      100.0   
2178110403       31.809     8.623      0.000      0.000      100.0   
2178110501!      32.421     8.530      0.000      0.000      100.0   
2178110501       32.421     8.530      0.000      0.000      100.0   
2178110502!      32.808     7.167      0.000      0.000      100.0   
2178110502       32.808     7.167      0.000      0.000      100.0   
2178110801       43.530     13.902     0.000      0.000      100.0   
2178110901       43.703     11.575     0.000      0.000      100.0   
2178110903       43.902     6.662      0.000      0.000      100.0   
2178111101!      27.663     7.255      0.000      0.000      100.0   
2178111103!      27.649     5.469      0.000      0.000      100.0   
2178111101       27.663     7.255      0.000      0.000      100.0   
2178111103       27.649     5.469      0.000      0.000      100.0   
2178111102!      27.675     9.902      0.000      0.000      100.0   
2178111102       27.675     9.902      0.000      0.000      100.0   
2178112102!      27.638     17.812     0.000      0.000      100.0   
2178112102       27.638     17.812     0.000      0.000      100.0   
2178111201!      27.721     12.172     0.000      0.000      100.0   
2178111201       27.721     12.172     0.000      0.000      100.0   
2178111301!      27.960     12.135     0.000      0.000      100.0   
2178111301       27.960     12.135     0.000      0.000      100.0   
2178111303!      27.811     14.904     0.000      0.000      100.0   
2178111303       27.811     14.904     0.000      0.000      100.0   
2178111501!      32.874     7.590      0.000      0.000      100.0   
2178111501       32.874     7.590      0.000      0.000      100.0   
2178111502!      32.939     8.774      0.000      0.000      100.0   
2178111502       32.939     8.774      0.000      0.000      100.0   
2178111503!      33.005     8.056      0.000      0.000      100.0   
2178111503       33.005     8.056      0.000      0.000      100.0   
2178111504!      33.071     6.666      0.000      0.000      100.0   
2178111504       33.071     6.666      0.000      0.000      100.0   
2178112001!      27.614     31.137     0.000      0.000      100.0   
2178112002!      27.596     25.318     0.000      0.000      100.0   
2178112001       27.614     31.137     0.000      0.000      100.0   
2178112002       27.596     25.318     0.000      0.000      100.0   
2178112003!      27.581     9.755      0.000      0.000      100.0   
2178112003       27.581     9.755      0.000      0.000      100.0   
2178112004!      27.575     6.116      0.000      0.000      100.0   
2178112004       27.575     6.116      0.000      0.000      100.0   
2178112101!      27.659     5.459      0.000      0.000      100.0   
2178112101       27.659     5.459      0.000      0.000      100.0   
2178112103!      27.676     5.442      0.000      0.000      100.0   
2178112103       27.676     5.442      0.000      0.000      100.0   
2178112104!      27.699     5.809      0.000      0.000      100.0   
2178112104       27.699     5.809      0.000      0.000      100.0   
2178112105       27.719     5.789      0.000      0.000      100.0   
2178112106       27.731     5.546      0.000      0.000      100.0   
2178112401!      28.051     13.028     0.000      0.000      100.0   
2178112401       28.051     13.028     0.000      0.000      100.0   
2178112402!      28.122     12.054     0.000      0.000      100.0   
2178112501!      33.136     7.385      0.000      0.000      100.0   
2178112501       33.136     7.385      0.000      0.000      100.0   
2178112502!      33.202     6.548      0.000      0.000      100.0   
2178112502       33.202     6.548      0.000      0.000      100.0   
2178112503!      33.267     6.483      0.000      0.000      100.0   
2178112503       33.267     6.483      0.000      0.000      100.0   
2178113101       27.738     5.539      0.000      0.000      100.0   
2178113102       27.750     14.156     0.000      0.000      100.0   
2178113103       27.763     14.143     0.000      0.000      100.0   
2178113501!      33.333     7.757      0.000      0.000      100.0   
2178113501       33.333     7.757      0.000      0.000      100.0   
2178113503!      33.399     6.521      0.000      0.000      100.0   
2178113503       33.399     6.521      0.000      0.000      100.0   
2178113504!      33.464     5.968      0.000      0.000      100.0   
2178113504       33.464     5.968      0.000      0.000      100.0   
2178113505!      33.530     6.444      0.000      0.000      100.0   
2178113505       33.530     6.444      0.000      0.000      100.0   
2178114601!      33.595     6.548      0.000      0.000      100.0   
2178114601       33.595     6.548      0.000      0.000      100.0   
2178114602!      33.661     8.340      0.000      0.000      100.0   
2178114602       33.661     8.340      0.000      0.000      100.0   
2178114603!      33.727     8.179      0.000      0.000      100.0   
2178114603       33.727     8.179      0.000      0.000      100.0   
2178115601!      33.792     9.303      0.000      0.000      100.0   
2178115601       33.792     9.303      0.000      0.000      100.0   
2178115602!      33.818     9.651      0.000      0.000      100.0   
2178115602       33.818     9.651      0.000      0.000      100.0   
2178115603!      33.844     9.719      0.000      0.000      100.0   
2178115603       33.844     9.719      0.000      0.000      100.0   
2178115604!      33.869     5.968      0.000      0.000      100.0   
2178115604       33.869     5.968      0.000      0.000      100.0   
2178115901!      35.500     13.201     0.000      0.000      100.0   
2178115902!      35.500     16.085     0.000      0.000      100.0   
2178115901       35.500     13.201     0.000      0.000      100.0   
2178115902       35.500     16.085     0.000      0.000      100.0   
2178116901!      35.307     12.693     0.000      0.000      100.0   
2178116901       35.800     12.200     0.000      0.000      100.0   
2178116601!      33.895     6.971      0.000      0.000      100.0   
2178116601       33.895     6.971      0.000      0.000      100.0   
2178116602!      33.921     7.082      0.000      0.000      100.0   
2178116602       33.921     7.082      0.000      0.000      100.0   
2178116603!      33.992     6.440      0.000      0.000      100.0   
2178116603       33.992     6.440      0.000      0.000      100.0   
2178116701!      34.400     6.636      0.000      0.000      100.0   
2178116702!      34.350     6.489      0.000      0.000      100.0   
2178116701       34.400     6.636      0.000      0.000      100.0   
2178116702       34.350     6.489      0.000      0.000      100.0   
2178116801!      34.900     7.806      0.000      0.000      100.0   
2178116801       34.900     7.806      0.000      0.000      100.0   
2178116902!      35.290     12.710     0.000      0.000      100.0   
2178116902       35.800     12.200     0.000      0.000      100.0   
2178116904!      35.214     7.877      0.000      0.000      100.0   
2178116904       35.700     7.391      0.000      0.000      100.0   
2178116903!      35.141     7.950      0.000      0.000      100.0   
2178116903       35.350     7.741      0.000      0.000      100.0   
2178123901       37.707     11.957     0.000      0.000      100.0   
2178133003       37.522     9.265      0.000      0.000      100.0   
2178123902       37.885     11.779     0.000      0.000      100.0   
2178123903       38.061     8.116      0.000      0.000      100.0   
2178124101!      42.700     8.563      0.000      0.000      100.0   
2178125101!      42.200     8.006      0.000      0.000      100.0   
2178124101       42.700     8.563      0.000      0.000      100.0   
2178125101       42.200     8.006      0.000      0.000      100.0   
2178124201!      43.600     10.490     0.000      0.000      100.0   
2178124202!      43.100     7.490      0.000      0.000      100.0   
2178124202       43.100     7.490      0.000      0.000      100.0   
2178124801       38.605     8.024      0.000      0.000      100.0   
2178124902       38.425     8.886      0.000      0.000      100.0   
2178124802       38.787     10.474     0.000      0.000      100.0   
2178124901       38.243     9.068      0.000      0.000      100.0   
2178125001!      37.600     8.578      0.000      0.000      100.0   
2178125002!      37.600     8.578      0.000      0.000      100.0   
2178125001       37.600     8.578      0.000      0.000      100.0   
2178125002       37.600     8.578      0.000      0.000      100.0   
2178125003!      37.300     9.863      0.000      0.000      100.0   
2178125003       37.300     9.863      0.000      0.000      100.0   
2178125005!      36.000     11.704     0.000      0.000      100.0   
2178125005       36.000     11.704     0.000      0.000      100.0   
2178125004!      38.000     10.617     0.000      0.000      100.0   
2178125004       38.000     10.617     0.000      0.000      100.0   
2178125102!      42.100     7.105      0.000      0.000      100.0   
2178125102       42.100     7.105      0.000      0.000      100.0   
2178125103!      42.100     9.436      0.000      0.000      100.0   
2178125103       42.100     9.436      0.000      0.000      100.0   
2178125801       39.270     5.713      0.000      0.000      100.0   
2178125901       40.021     8.338      0.000      0.000      100.0   
2178126901       40.661     8.745      0.000      0.000      100.0   
2178127901       41.584     7.860      0.000      0.000      100.0   
2178128901       42.435     10.991     0.000      0.000      100.0   
2178130401       32.183     6.203      0.000      0.000      100.0   
2178130403       32.227     6.524      0.000      0.000      100.0   
2178130404       32.614     6.912      0.000      0.000      100.0   
2178130405       32.741     7.986      0.000      0.000      100.0   
2178130406       32.812     7.297      0.000      0.000      100.0   
2178130407       32.863     7.864      0.000      0.000      100.0   
2178130408       33.031     7.078      0.000      0.000      100.0   
2178130501       34.869     7.920      0.000      0.000      100.0   
2178130608       34.844     7.739      0.000      0.000      100.0   
2178130601       34.300     8.045      0.000      0.000      100.0   
2178130602       34.326     8.185      0.000      0.000      100.0   
2178130603       34.396     8.115      0.000      0.000      100.0   
2178130604       34.502     8.009      0.000      0.000      100.0   
2178130605       34.620     8.293      0.000      0.000      100.0   
2178130606       34.657     8.256      0.000      0.000      100.0   
2178130607       34.711     8.202      0.000      0.000      100.0   
2178130609       34.919     7.664      0.000      0.000      100.0   
2178130701       34.650     7.240      0.000      0.000      100.0   
2178130702       34.872     7.854      0.000      0.000      100.0   
2178130706       34.753     7.261      0.000      0.000      100.0   
2178130703       34.904     7.822      0.000      0.000      100.0   
2178130704       34.699     7.315      0.000      0.000      100.0   
2178130705       34.946     7.780      0.000      0.000      100.0   
2178130707       34.986     7.740      0.000      0.000      100.0   
2178130708       35.014     7.268      0.000      0.000      100.0   
2178130709       35.084     8.348      0.000      0.000      100.0   
2178130710       35.124     8.308      0.000      0.000      100.0   
2178130711       35.221     8.251      0.000      0.000      100.0   
2178130801       35.300     7.873      0.000      0.000      100.0   
2178130802       35.366     7.807      0.000      0.000      100.0   
2178130803       35.429     7.744      0.000      0.000      100.0   
2178130901       35.048     8.025      0.000      0.000      100.0   
2178131201       34.138     6.944      0.000      0.000      100.0   
2178131304       33.871     8.641      0.000      0.000      100.0   
2178131202       34.405     6.677      0.000      0.000      100.0   
2178131301       33.121     11.091     0.000      0.000      100.0   
2178131302       33.381     10.831     0.000      0.000      100.0   
2178131303       33.604     8.683      0.000      0.000      100.0   
2178131401       33.117     7.744      0.000      0.000      100.0   
2178131402       33.322     7.539      0.000      0.000      100.0   
2178131403       33.685     7.164      0.000      0.000      100.0   
2178131404       33.715     7.134      0.000      0.000      100.0   
2178131405       33.953     6.884      0.000      0.000      100.0   
2178131406       34.135     6.702      0.000      0.000      100.0   
2178131601       34.949     6.978      0.000      0.000      100.0   
2178131602       34.982     6.945      0.000      0.000      100.0   
2178131603       35.065     6.862      0.000      0.000      100.0   
2178131604       35.308     7.270      0.000      0.000      100.0   
2178131605       35.432     8.057      0.000      0.000      100.0   
2178131606       35.446     8.043      0.000      0.000      100.0   
2178131607       35.477     8.012      0.000      0.000      100.0   
2178131608       35.694     8.242      0.000      0.000      100.0   
2178131801       35.494     7.354      0.000      0.000      100.0   
2178131802       35.564     7.284      0.000      0.000      100.0   
2178131803       35.643     6.842      0.000      0.000      100.0   
2178131804       35.654     6.831      0.000      0.000      100.0   
2178131805       35.726     8.135      0.000      0.000      100.0   
2178131806       35.736     8.125      0.000      0.000      100.0   
2178131901       35.470     6.863      0.000      0.000      100.0   
2178131902       35.944     8.150      0.000      0.000      100.0   
2178132001       36.290     12.553     0.000      0.000      100.0   
2178132104       36.016     11.513     0.000      0.000      100.0   
2178132101       35.209     8.761      0.000      0.000      100.0   
2178132202       34.942     11.255     0.000      0.000      100.0   
2178132102       35.478     4.954      0.000      0.000      100.0   
2178132103       35.747     7.922      0.000      0.000      100.0   
2178132201       34.674     9.674      0.000      0.000      100.0   
2178132401       34.226     7.536      0.000      0.000      100.0   
2178132402       34.290     8.135      0.000      0.000      100.0   
2178132403       34.462     7.300      0.000      0.000      100.0   
2178132404       34.479     7.953      0.000      0.000      100.0   
2178132405       34.490     7.942      0.000      0.000      100.0   
2178132406       34.501     8.539      0.000      0.000      100.0   
2178132407       34.691     7.957      0.000      0.000      100.0   
2178132408       34.943     7.241      0.000      0.000      100.0   
2178132501       35.295     6.137      0.000      0.000      100.0   
2178132601       35.757     8.179      0.000      0.000      100.0   
2178132602       35.768     8.168      0.000      0.000      100.0   
2178132603       35.804     7.628      0.000      0.000      100.0   
2178132604       35.925     8.037      0.000      0.000      100.0   
2178132605       35.973     7.989      0.000      0.000      100.0   
2178132606       36.032     8.506      0.000      0.000      100.0   
2178132607       36.090     8.896      0.000      0.000      100.0   
2178132901       36.075     7.915      0.000      0.000      100.0   
2178132902       36.220     7.643      0.000      0.000      100.0   
2178132906       36.129     10.562     0.000      0.000      100.0   
2178133001       36.655     14.985     0.000      0.000      100.0   
2178133002       36.911     7.456      0.000      0.000      100.0   
2178133401       35.909     6.345      0.000      0.000      100.0   
2178133501       35.629     6.182      0.000      0.000      100.0   
2178133402       36.141     6.291      0.000      0.000      100.0   
2178133403       36.407     6.025      0.000      0.000      100.0   
2178133404       36.960     5.472      0.000      0.000      100.0   
2178133601       36.108     8.878      0.000      0.000      100.0   
2178133602       36.173     8.813      0.000      0.000      100.0   
2178133701       36.265     9.313      0.000      0.000      100.0   
2178133702       36.361     8.506      0.000      0.000      100.0   
2178133703       36.416     8.030      0.000      0.000      100.0   
2178133704       36.474     7.972      0.000      0.000      100.0   
2178133705       36.508     7.938      0.000      0.000      100.0   
2178133706       36.771     7.693      0.000      0.000      100.0   
2178133707       36.898     7.534      0.000      0.000      100.0   
2178133708       37.043     7.389      0.000      0.000      100.0   
2178133901       36.796     9.636      0.000      0.000      100.0   
2178134401       37.200     5.812      0.000      0.000      100.0   
2178134402       37.460     5.664      0.000      0.000      100.0   
2178134403       37.631     7.371      0.000      0.000      100.0   
2178134801       37.402     9.094      0.000      0.000      100.0   
2178134802       37.742     8.690      0.000      0.000      100.0   
2178134803       37.743     8.689      0.000      0.000      100.0   
2178134804       37.744     9.236      0.000      0.000      100.0   
2178134805       37.949     8.483      0.000      0.000      100.0   
2178134806       38.037     8.395      0.000      0.000      100.0   
2178134809       37.430     9.470      0.000      0.000      100.0   
2178135401       37.822     6.610      0.000      0.000      100.0   
2178135402       38.029     9.131      0.000      0.000      100.0   
2178135403       38.700     8.732      0.000      0.000      100.0   
2178135404       38.200     8.960      0.000      0.000      100.0   
2178135801       39.056     8.695      0.000      0.000      100.0   
2178135802       39.246     8.771      0.000      0.000      100.0   
2178135803       39.470     7.560      0.000      0.000      100.0   
2178136401       39.203     6.488      0.000      0.000      100.0   
2178136402       39.265     6.659      0.000      0.000      100.0   
2178136403       39.281     8.386      0.000      0.000      100.0   
2178136404       39.299     8.368      0.000      0.000      100.0   
2178136501       39.352     8.834      0.000      0.000      100.0   
2178136502       39.407     9.599      0.000      0.000      100.0   
2178136503       39.468     11.618     0.000      0.000      100.0   
2178136701       38.195     9.565      0.000      0.000      100.0   
2178136801       39.931     5.342      0.000      0.000      100.0   
2178137601       39.518     10.441     0.000      0.000      100.0   
2178137602       39.000     9.051      0.000      0.000      100.0   
2178137603       39.700     6.565      0.000      0.000      100.0   
2178137801       40.514     4.938      0.000      0.000      100.0   
2178138101       44.000     7.079      0.000      0.000      100.0   
2178138601       41.726     4.706      0.000      0.000      100.0   
2178139601       42.500     6.174      0.000      0.000      100.0   
2178142001       37.009     9.682      0.000      0.000      100.0   
2178142002       37.435     9.437      0.000      0.000      100.0   
2178142005       37.248     8.774      0.000      0.000      100.0   
2178142003       37.237     9.333      0.000      0.000      100.0   
2178142004       37.246     8.776      0.000      0.000      100.0   
2178142101       37.901     8.298      0.000      0.000      100.0   
2178142104       37.736     8.462      0.000      0.000      100.0   
2178142102       38.062     7.845      0.000      0.000      100.0   
2178142103       37.574     8.845      0.000      0.000      100.0   
2178142201       38.214     7.693      0.000      0.000      100.0   
2178142202       38.309     8.253      0.000      0.000      100.0   
2178142203       38.616     7.946      0.000      0.000      100.0   
2178142204       38.909     8.523      0.000      0.000      100.0   
2178143001       37.437     7.738      0.000      0.000      100.0   
2178143002       37.489     8.867      0.000      0.000      100.0   
2178143003       37.542     8.050      0.000      0.000      100.0   
2178143004       37.557     8.035      0.000      0.000      100.0   
2178143005       37.564     8.028      0.000      0.000      100.0   
2178143006       37.576     7.020      0.000      0.000      100.0   
2178143007       37.747     7.131      0.000      0.000      100.0   
2178143201       39.114     7.985      0.000      0.000      100.0   
2178143301       39.320     7.700      0.000      0.000      100.0   
2178143302       39.497     7.901      0.000      0.000      100.0   
2178143303       39.595     9.411      0.000      0.000      100.0   
2178143401       39.612     18.801     0.000      0.000      100.0   
2178143402       39.658     23.276     0.000      0.000      100.0   
2178144001       37.874     7.353      0.000      0.000      100.0   
2178144101       37.972     7.255      0.000      0.000      100.0   
2178144102       37.973     6.837      0.000      0.000      100.0   
2178144103       38.067     6.743      0.000      0.000      100.0   
2178144104       38.138     8.796      0.000      0.000      100.0   
2178144105       38.195     8.739      0.000      0.000      100.0   
2178144106       38.227     8.863      0.000      0.000      100.0   
2178145101       38.258     9.174      0.000      0.000      100.0   
2178145102       38.300     9.132      0.000      0.000      100.0   
2178145103       38.321     9.111      0.000      0.000      100.0   
2178145104       38.351     9.424      0.000      0.000      100.0   
2178145105       38.544     9.231      0.000      0.000      100.0   
2178145106       38.710     9.207      0.000      0.000      100.0   
2178145107       38.822     9.095      0.000      0.000      100.0   
2178146101       39.159     8.579      0.000      0.000      100.0   
2178146201       39.465     7.967      0.000      0.000      100.0   
2178146202       39.668     8.738      0.000      0.000      100.0   
2178146203       39.838     8.568      0.000      0.000      100.0   
2178146204       39.989     7.578      0.000      0.000      100.0   
2178146205       40.052     7.515      0.000      0.000      100.0   
2178146206       40.184     7.270      0.000      0.000      100.0   
2178146207       40.277     8.155      0.000      0.000      100.0   
2178146208       40.525     14.260     0.000      0.000      100.0   
2178146209       40.363     8.069      0.000      0.000      100.0   
2178147001       41.271     37.114     0.000      0.000      100.0   
2178147201       41.117     12.011     0.000      0.000      100.0   
2178147202       41.540     11.588     0.000      0.000      100.0   
2178147203       41.789     11.738     0.000      0.000      100.0   
2178147204       42.073     13.872     0.000      0.000      100.0   
2178147301       42.449     14.485     0.000      0.000      100.0   
2178147302       42.702     6.942      0.000      0.000      100.0   
2178148201       41.977     4.897      0.000      0.000      100.0   
2178148301       42.503     6.936      0.000      0.000      100.0   
2178148401       43.500     6.451      0.000      0.000      100.0   
2178148501       44.000     12.776     0.000      0.000      100.0   
2178148701       44.500     17.936     0.000      0.000      100.0   
2178148801       45.500     6.990      0.000      0.000      100.0   
2178149701       46.200     21.267     0.000      0.000      100.0   
2179090702       25.360     11.128     0.000      0.000      100.0   
2179092601       25.215     15.124     0.000      0.000      100.0   
2179093701       25.089     9.230      0.000      0.000      100.0   
2179094801       24.860     15.644     0.000      0.000      100.0   
2179094802       24.777     9.767      0.000      0.000      100.0   
2179107001       24.497     11.066     0.000      0.000      100.0   
2179098801       24.317     5.168      0.000      0.000      100.0   
2179098802       24.242     4.629      0.000      0.000      100.0   
2179099902       24.147     10.538     0.000      0.000      100.0   
2179098901       24.178     7.323      0.000      0.000      100.0   
2179098902       24.173     7.328      0.000      0.000      100.0   
2179099901       24.160     7.466      0.000      0.000      100.0   
2179099903       24.133     9.705      0.000      0.000      100.0   
2179099904       24.125     8.069      0.000      0.000      100.0   
2180090901       24.113     7.604      0.000      0.000      100.0   
2179100102       25.845     6.646      0.000      0.000      100.0   
2179100103       25.837     10.647     0.000      0.000      100.0   
2179100104       25.826     10.920     0.000      0.000      100.0   
2179101101       25.816     13.677     0.000      0.000      100.0   
2179100801       27.257     12.036     0.000      0.000      100.0   
2179101102       25.805     12.837     0.000      0.000      100.0   
2179101103       25.796     5.472      0.000      0.000      100.0   
2179102201       25.788     5.894      0.000      0.000      100.0   
2179101401       26.140     10.396     0.000      0.000      100.0   
2179102401       25.877     13.619     0.000      0.000      100.0   
2179101901       27.577     11.855     0.000      0.000      100.0   
2179102101       25.782     7.273      0.000      0.000      100.0   
2179102102       25.754     7.678      0.000      0.000      100.0   
2179102103       25.722     7.710      0.000      0.000      100.0   
2179102202       25.691     7.717      0.000      0.000      100.0   
2179102203       25.668     6.291      0.000      0.000      100.0   
2179102204       25.633     8.557      0.000      0.000      100.0   
2179103301       25.598     6.207      0.000      0.000      100.0   
2179103306       25.718     11.364     0.000      0.000      100.0   
2179103201       25.473     9.387      0.000      0.000      100.0   
2179103202       25.444     9.416      0.000      0.000      100.0   
2179103203       25.414     8.018      0.000      0.000      100.0   
2179104201       25.387     7.920      0.000      0.000      100.0   
2179103302       25.562     6.243      0.000      0.000      100.0   
2179103303       25.534     7.089      0.000      0.000      100.0   
2179103305       25.506     7.117      0.000      0.000      100.0   
2179103304       25.621     7.811      0.000      0.000      100.0   
2179104101       25.271     8.878      0.000      0.000      100.0   
2179104102       25.271     7.831      0.000      0.000      100.0   
2179105101       25.246     7.186      0.000      0.000      100.0   
2179104202       25.347     8.444      0.000      0.000      100.0   
2179105001       25.155     9.734      0.000      0.000      100.0   
2179105002       25.112     17.457     0.000      0.000      100.0   
2179106001       25.102     17.467     0.000      0.000      100.0   
2179105102       25.212     7.220      0.000      0.000      100.0   
2179105103       25.187     9.969      0.000      0.000      100.0   
2179106002       25.076     17.493     0.000      0.000      100.0   
2179106003       25.050     19.567     0.000      0.000      100.0   
2179106004       25.024     19.593     0.000      0.000      100.0   
2179106005       24.982     10.471     0.000      0.000      100.0   
2179107002       24.938     8.082      0.000      0.000      100.0   
2179107003       24.895     8.522      0.000      0.000      100.0   
2179107004       24.851     8.579      0.000      0.000      100.0   
2179107005       24.828     8.081      0.000      0.000      100.0   
2179107006       24.810     8.099      0.000      0.000      100.0   
2179108001       24.793     6.559      0.000      0.000      100.0   
2179108002       24.763     6.589      0.000      0.000      100.0   
2179108003       24.726     6.626      0.000      0.000      100.0   
2179108004       24.200     7.124      0.000      0.000      100.0   
2179108005       24.197     7.127      0.000      0.000      100.0   
2179108006       24.182     7.319      0.000      0.000      100.0   
2179111103       28.129     17.450     0.000      0.000      100.0   
2179112101       27.947     11.784     0.000      0.000      100.0   
2179111202       28.547     13.190     0.000      0.000      100.0   
2179111203       28.399     13.338     0.000      0.000      100.0   
2179111204       28.334     13.403     0.000      0.000      100.0   
2179111206       28.294     8.136      0.000      0.000      100.0   
2179111205       28.690     17.707     0.000      0.000      100.0   
2179111301       29.039     15.950     0.000      0.000      100.0   
2179111302       28.972     15.927     0.000      0.000      100.0   
2179111304       28.850     16.049     0.000      0.000      100.0   
2179111303       29.125     15.864     0.000      0.000      100.0   
2179112301       29.220     14.979     0.000      0.000      100.0   
2179112302       29.336     18.874     0.000      0.000      100.0   
2179112303       29.483     18.727     0.000      0.000      100.0   
2179112304       29.610     19.822     0.000      0.000      100.0   
2179112401       29.790     19.642     0.000      0.000      100.0   
2179112402       29.893     20.498     0.000      0.000      100.0   
2179112403       29.965     23.255     0.000      0.000      100.0   
2179112404       30.030     23.190     0.000      0.000      100.0   
2179112405       30.157     21.566     0.000      0.000      100.0   
2179112406       30.414     15.023     0.000      0.000      100.0   
2179112501       30.656     15.397     0.000      0.000      100.0   
2179112502       31.014     15.039     0.000      0.000      100.0   
2179112503       31.073     15.085     0.000      0.000      100.0   
2179112801       35.899     17.560     0.000      0.000      100.0   
2179112802       35.334     18.125     0.000      0.000      100.0   
2179112804       34.636     14.821     0.000      0.000      100.0   
2179112803       36.146     17.166     0.000      0.000      100.0   
2179112805       34.159     15.298     0.000      0.000      100.0   
2179112806       33.941     9.606      0.000      0.000      100.0   
2179113801       33.577     9.970      0.000      0.000      100.0   
2179112901       36.964     14.430     0.000      0.000      100.0   
2179112902       36.869     17.287     0.000      0.000      100.0   
2179112905       36.772     19.776     0.000      0.000      100.0   
2179112903       36.559     16.719     0.000      0.000      100.0   
2179112904       36.413     16.865     0.000      0.000      100.0   
2179112907       36.321     16.629     0.000      0.000      100.0   
2179112906       36.663     19.885     0.000      0.000      100.0   
2179112908       36.234     16.716     0.000      0.000      100.0   
2179113501       31.231     12.938     0.000      0.000      100.0   
2179113504       31.142     15.016     0.000      0.000      100.0   
2179113502       31.114     15.044     0.000      0.000      100.0   
2179113503       31.338     11.740     0.000      0.000      100.0   
2179113505       31.423     11.655     0.000      0.000      100.0   
2179113601       31.526     11.073     0.000      0.000      100.0   
2179113602       31.701     9.879      0.000      0.000      100.0   
2179113603       31.874     9.148      0.000      0.000      100.0   
2179113701       32.622     12.617     0.000      0.000      100.0   
2179113704       32.467     9.964      0.000      0.000      100.0   
2179113702       32.719     12.520     0.000      0.000      100.0   
2179113703       32.203     10.228     0.000      0.000      100.0   
2179113705       33.336     10.817     0.000      0.000      100.0   
2179113707       33.235     14.192     0.000      0.000      100.0   
2179113706       32.922     13.596     0.000      0.000      100.0   
2179113708       33.138     14.289     0.000      0.000      100.0   
2179113802       33.478     10.675     0.000      0.000      100.0   
2179121001       37.845     12.770     0.000      0.000      100.0   
2179121002       37.758     16.674     0.000      0.000      100.0   
2179121005       37.541     14.662     0.000      0.000      100.0   
2179121003       38.061     7.439      0.000      0.000      100.0   
2179121004       37.988     7.512      0.000      0.000      100.0   
2179121006       37.478     14.725     0.000      0.000      100.0   
2179121007       37.354     15.550     0.000      0.000      100.0   
2179122001       37.301     12.654     0.000      0.000      100.0   
2179121101       38.568     9.714      0.000      0.000      100.0   
2179121102       38.318     8.764      0.000      0.000      100.0   
2179121106       38.187     7.313      0.000      0.000      100.0   
2179121103       38.657     9.625      0.000      0.000      100.0   
2179121104       38.826     9.456      0.000      0.000      100.0   
2179121105       38.864     11.285     0.000      0.000      100.0   
2179121107       39.037     12.951     0.000      0.000      100.0   
2179121108       39.276     10.858     0.000      0.000      100.0   
2179121201       39.538     10.539     0.000      0.000      100.0   
2179121202       39.708     10.369     0.000      0.000      100.0   
2179121802       53.205     10.408     0.000      0.000      100.0   
2179122701       52.821     7.846      0.000      0.000      100.0   
2179122002       37.170     12.785     0.000      0.000      100.0   
2179122003       37.074     14.320     0.000      0.000      100.0   
2179122201       40.607     14.096     0.000      0.000      100.0   
2179122202       40.532     14.171     0.000      0.000      100.0   
2179122203       40.410     14.293     0.000      0.000      100.0   
2179122205       40.315     14.813     0.000      0.000      100.0   
2179122204       39.916     13.744     0.000      0.000      100.0   
2179122207       40.197     14.931     0.000      0.000      100.0   
2179122206       40.072     15.056     0.000      0.000      100.0   
2179122301       40.940     15.904     0.000      0.000      100.0   
2179122303       40.753     16.091     0.000      0.000      100.0   
2179122302       41.065     13.959     0.000      0.000      100.0   
2179122304       41.249     13.775     0.000      0.000      100.0   
2179122305       41.612     13.412     0.000      0.000      100.0   
2179122306       41.837     8.424      0.000      0.000      100.0   
2179122307       42.154     8.107      0.000      0.000      100.0   
2179122308       42.375     6.815      0.000      0.000      100.0   
2179122309       42.474     9.966      0.000      0.000      100.0   
2179122401       43.112     13.675     0.000      0.000      100.0   
2179122402       44.018     17.631     0.000      0.000      100.0   
2179122403       43.627     13.160     0.000      0.000      100.0   
2179122404       43.458     13.329     0.000      0.000      100.0   
2179122405       43.597     13.190     0.000      0.000      100.0   
2179122406       43.714     13.073     0.000      0.000      100.0   
2179122407       43.791     21.784     0.000      0.000      100.0   
2179122408       44.221     18.688     0.000      0.000      100.0   
2179122501       46.941     10.091     0.000      0.000      100.0   
2179122506       46.388     11.348     0.000      0.000      100.0   
2179122502       45.349     22.083     0.000      0.000      100.0   
2179122503       45.598     18.604     0.000      0.000      100.0   
2179122504       46.140     11.596     0.000      0.000      100.0   
2179122505       46.250     11.486     0.000      0.000      100.0   
2179122507       46.301     11.435     0.000      0.000      100.0   
2179122601       49.917     8.052      0.000      0.000      100.0   
2179122602       49.707     7.725      0.000      0.000      100.0   
2179122603       49.707     7.802      0.000      0.000      100.0   
2179122604       49.211     7.524      0.000      0.000      100.0   
2179122605       48.994     7.741      0.000      0.000      100.0   
2179122606       48.772     7.963      0.000      0.000      100.0   
2179122607       48.666     8.069      0.000      0.000      100.0   
2179122608       48.592     8.143      0.000      0.000      100.0   
2179122702       51.030     8.648      0.000      0.000      100.0   
2179122703       50.858     8.574      0.000      0.000      100.0   
2179122704       50.287     7.682      0.000      0.000      100.0   
2179123401       44.584     18.325     0.000      0.000      100.0   
2179123402       44.655     18.254     0.000      0.000      100.0   
2179123403       44.861     18.155     0.000      0.000      100.0   
2179123404       45.515     17.501     0.000      0.000      100.0   
2179123406       45.451     17.565     0.000      0.000      100.0   
2179123405       45.675     20.814     0.000      0.000      100.0   
2179123501       46.478     9.030      0.000      0.000      100.0   
2179123505       46.324     9.184      0.000      0.000      100.0   
2179123502       46.478     9.030      0.000      0.000      100.0   
2179123503       45.845     20.644     0.000      0.000      100.0   
2179123504       46.687     7.162      0.000      0.000      100.0   
2179123507       46.262     12.775     0.000      0.000      100.0   
2179123506       45.975     13.062     0.000      0.000      100.0   
2179123508       46.196     12.841     0.000      0.000      100.0   
2179123509       46.073     12.964     0.000      0.000      100.0   
2179123510       46.774     6.658      0.000      0.000      100.0   
2179123511       46.913     6.519      0.000      0.000      100.0   
2179123601       47.009     7.146      0.000      0.000      100.0   
2179123602       47.176     6.979      0.000      0.000      100.0   
2179123603       47.393     8.258      0.000      0.000      100.0   
2179123604       47.500     8.151      0.000      0.000      100.0   
2179123605       47.516     8.135      0.000      0.000      100.0   
2179123606       48.298     10.585     0.000      0.000      100.0   
2179123609       48.125     9.104      0.000      0.000      100.0   
2179123607       48.513     10.370     0.000      0.000      100.0   
2179123608       47.567     9.662      0.000      0.000      100.0   
2179124602       47.743     9.486      0.000      0.000      100.0   
2179124601       48.683     10.200     0.000      0.000      100.0   
2179124603       48.858     10.025     0.000      0.000      100.0   
2179124604       49.132     11.390     0.000      0.000      100.0   
2179124605       49.372     13.594     0.000      0.000      100.0   
2179124701       49.486     13.480     0.000      0.000      100.0   
2179124702       50.636     14.937     0.000      0.000      100.0   
2179124704       50.269     14.533     0.000      0.000      100.0   
2179124703       49.581     13.385     0.000      0.000      100.0   
2179124705       49.994     14.808     0.000      0.000      100.0   
2179124706       49.772     13.194     0.000      0.000      100.0   
2179124801       51.631     10.426     0.000      0.000      100.0   
2179124803       50.927     12.506     0.000      0.000      100.0   
2179124802       52.104     9.953      0.000      0.000      100.0   
2179124804       52.837     8.719      0.000      0.000      100.0   
2179124806       52.523     9.033      0.000      0.000      100.0   
2179124805       52.329     9.728      0.000      0.000      100.0   
2179124807       53.229     9.443      0.000      0.000      100.0   
2179124808       53.400     9.272      0.000      0.000      100.0   
2179124901       54.842     9.992      0.000      0.000      100.0   
2179124902       55.416     8.304      0.000      0.000      100.0   
2179124903       56.442     9.097      0.000      0.000      100.0   
2179124904       56.022     9.517      0.000      0.000      100.0   
2179124905       55.725     7.995      0.000      0.000      100.0   
2179130501       44.109     9.831      0.000      0.000      100.0   
2179130601       44.547     7.638      0.000      0.000      100.0   
2179130602       45.000     6.567      0.000      0.000      100.0   
2179134001       60.869     10.840     0.000      0.000      100.0   
2179134003       60.137     12.359     0.000      0.000      100.0   
2179134002       61.174     10.535     0.000      0.000      100.0   
2179134004       59.730     13.215     0.000      0.000      100.0   
2179134005       58.704     22.182     0.000      0.000      100.0   
2179134006       57.022     15.394     0.000      0.000      100.0   
2179134101       63.122     11.291     0.000      0.000      100.0   
2179134102       62.556     10.442     0.000      0.000      100.0   
2179134103       63.547     10.866     0.000      0.000      100.0   
2179134104       64.247     9.395      0.000      0.000      100.0   
2179134201       64.658     9.575      0.000      0.000      100.0   
2179134202       66.562     6.682      0.000      0.000      100.0   
2179135201       67.225     8.019      0.000      0.000      100.0   
2179135202       67.552     7.692      0.000      0.000      100.0   
2179135203       68.036     9.597      0.000      0.000      100.0   
2179135204       69.868     8.184      0.000      0.000      100.0   
2179135301       70.125     6.128      0.000      0.000      100.0   
2179135302       70.236     6.017      0.000      0.000      100.0   
2179135303       70.365     10.132     0.000      0.000      100.0   
2179135304       70.964     8.833      0.000      0.000      100.0   
2179135305       71.796     8.246      0.000      0.000      100.0   
2179135306       71.214     8.583      0.000      0.000      100.0   
2179135401       72.325     7.717      0.000      0.000      100.0   
2179140701       47.199     14.055     0.000      0.000      100.0   
2179141601       48.000     7.956      0.000      0.000      100.0   
2179141701       47.698     18.759     0.000      0.000      100.0   
2179155101       61.269     20.546     0.000      0.000      100.0   
2179156301       60.532     4.396      0.000      0.000      100.0   
2179156401       59.406     3.124      0.000      0.000      100.0   
2179157101       61.642     10.283     0.000      0.000      100.0   
2179158201       62.334     7.537      0.000      0.000      100.0   
2180090902       24.102     6.941      0.000      0.000      100.0   
2180090903       24.089     6.267      0.000      0.000      100.0   
2180091901       24.077     5.625      0.000      0.000      100.0   
2180091501       23.881     5.271      0.000      0.000      100.0   
2180091502       23.855     4.391      0.000      0.000      100.0   
2180092401       23.836     5.483      0.000      0.000      100.0   
2180091601       23.960     5.472      0.000      0.000      100.0   
2180091602       23.900     5.797      0.000      0.000      100.0   
2180091701       23.989     5.877      0.000      0.000      100.0   
2180091702       23.984     5.882      0.000      0.000      100.0   
2180091704       23.972     5.460      0.000      0.000      100.0   
2180091703       23.996     6.208      0.000      0.000      100.0   
2180091801       24.007     7.784      0.000      0.000      100.0   
2180091802       24.022     6.405      0.000      0.000      100.0   
2180091803       24.032     6.057      0.000      0.000      100.0   
2180091804       24.044     6.260      0.000      0.000      100.0   
2180091902       24.066     5.636      0.000      0.000      100.0   
2180091903       24.053     5.853      0.000      0.000      100.0   
2180093301       23.500     5.200      0.000      0.000      100.0   
2180094301       23.485     8.223      0.000      0.000      100.0   
2180096401       23.460     5.448      0.000      0.000      100.0   
2180098501       23.432     6.341      0.000      0.000      100.0   
2181091901       23.366     10.047     0.000      0.000      100.0   
2180099502       23.422     6.827      0.000      0.000      100.0   
2181090601       23.406     9.944      0.000      0.000      100.0   
2180119909       24.805     5.159      0.000      0.000      100.0   
2180119907       24.845     5.119      0.000      0.000      100.0   
2180119910       24.779     5.185      0.000      0.000      100.0   
2181111701       24.324     6.183      0.000      0.000      100.0   
2180128201       25.713     10.755     0.000      0.000      100.0   
2180128202       25.676     6.343      0.000      0.000      100.0   
2180129201       25.561     4.765      0.000      0.000      100.0   
2180128203       25.769     10.699     0.000      0.000      100.0   
2180128204       25.840     13.252     0.000      0.000      100.0   
2180128901       35.000     19.805     0.000      0.000      100.0   
2180138001       34.000     10.814     0.000      0.000      100.0   
2180129001       25.054     14.926     0.000      0.000      100.0   
2180129002       25.006     14.974     0.000      0.000      100.0   
2180129003       24.937     7.776      0.000      0.000      100.0   
2180129101       25.329     3.169      0.000      0.000      100.0   
2180129102       25.295     3.203      0.000      0.000      100.0   
2180129105       25.214     3.406      0.000      0.000      100.0   
2180129103       25.109     19.427     0.000      0.000      100.0   
2180129104       25.144     4.138      0.000      0.000      100.0   
2180129202       25.472     3.193      0.000      0.000      100.0   
2180129301       25.894     13.198     0.000      0.000      100.0   
2180129302       26.028     6.404      0.000      0.000      100.0   
2180129306       26.145     7.186      0.000      0.000      100.0   
2180129308       26.169     7.162      0.000      0.000      100.0   
2180129309       26.264     7.067      0.000      0.000      100.0   
2180129310       26.350     7.167      0.000      0.000      100.0   
2180129801       30.032     8.692      0.000      0.000      100.0   
2180129803       29.930     7.933      0.000      0.000      100.0   
2180129802       30.474     7.752      0.000      0.000      100.0   
2181120801       29.774     19.234     0.000      0.000      100.0   
2180133301       51.805     9.998      0.000      0.000      100.0   
2180132307       53.565     4.756      0.000      0.000      100.0   
2180132401       53.837     6.895      0.000      0.000      100.0   
2180132501       62.500     11.966     0.000      0.000      100.0   
2180132502       59.500     18.662     0.000      0.000      100.0   
2180132503       57.000     10.821     0.000      0.000      100.0   
2180132504       54.123     10.910     0.000      0.000      100.0   
2180134201       47.907     7.138      0.000      0.000      100.0   
2180135101       42.000     9.058      0.000      0.000      100.0   
2180136001       38.424     24.975     0.000      0.000      100.0   
2181120903       30.630     9.103      0.000      0.000      100.0   
2180140601       73.500     48.314     0.000      0.000      100.0   
2181091801       23.383     8.929      0.000      0.000      100.0   
2181101103       23.345     7.075      0.000      0.000      100.0   
2181104401       23.292     4.508      0.000      0.000      100.0   
2181107401       23.217     6.395      0.000      0.000      100.0   
2182100401       23.132     7.061      0.000      0.000      100.0   
2181107901       23.411     11.806     0.000      0.000      100.0   
2181107902       23.414     9.504      0.000      0.000      100.0   
2181112501       23.834     9.467      0.000      0.000      100.0   
2181113501       23.722     9.657      0.000      0.000      100.0   
2181113503       23.606     6.926      0.000      0.000      100.0   
2181114401       23.500     5.932      0.000      0.000      100.0   
2181117102       23.451     9.820      0.000      0.000      100.0   
2181120301       26.670     6.278      0.000      0.000      100.0   
2181120302       27.029     8.403      0.000      0.000      100.0   
2181120401       27.414     6.906      0.000      0.000      100.0   
2181120601       28.114     8.307      0.000      0.000      100.0   
2181120602       28.000     8.421      0.000      0.000      100.0   
2181120603       27.957     6.475      0.000      0.000      100.0   
2181120604       27.902     6.530      0.000      0.000      100.0   
2181120701       29.335     32.171     0.000      0.000      100.0   
2181120703       28.994     30.901     0.000      0.000      100.0   
2181120702       28.717     18.816     0.000      0.000      100.0   
2181120704       28.414     11.422     0.000      0.000      100.0   
2181120802       29.595     19.413     0.000      0.000      100.0   
2181120901       30.550     9.183      0.000      0.000      100.0   
2181120902       30.563     9.170      0.000      0.000      100.0   
2182096801       22.863     4.937      0.000      0.000      100.0   
2182097501       22.797     5.003      0.000      0.000      100.0   
2182098301       22.723     5.077      0.000      0.000      100.0   
2182099001       22.631     7.801      0.000      0.000      100.0   
2182102301       23.052     5.311      0.000      0.000      100.0   
2182104101       22.973     6.968      0.000      0.000      100.0   

[OUTFALLS]
;;Name           Elevation  Type       StageData  Gated
2175084101       24.067     FREE                  NO
2175084201       26.000     FREE                  NO
2175086301       24.500     FREE                  NO
2175087701       26.340     FREE                  NO
2175087401       25.000     FREE                  NO
2175088601       25.000     FREE                  NO
2175088701       25.500     FREE                  NO
2176047503       22.800     FREE                  NO
2175089901       25.500     FREE                  NO
2176091201       26.000     FREE                  NO
2176092501       26.000     FREE                  NO
2176092901       25.000     FREE                  NO
2176101102       25.000     FREE                  NO
2176100401       26.000     FREE                  NO
2176102001       24.100     FREE                  NO
2176101101!      25.000     FREE                  NO
2176101201       25.000     FREE                  NO
2176105901       26.108     FREE                  NO
2176106801       25.000     FREE                  NO
2176116302       27.000     FREE                  NO
2176118001       24.000     FREE                  NO
2176118501       26.800     FREE                  NO
2176118801       26.998     FREE                  NO
2176127202       30.000     FREE                  NO
2176129601       27.000     FREE                  NO
2176138203       26.102     FREE                  NO
2176138302       28.400     FREE                  NO
2177105016!      25.239     FREE                  NO
2177105016       25.239     FREE                  NO
2177120801       26.307     FREE                  NO
2177131501       27.842     FREE                  NO
2177133701       31.081     FREE                  NO
2177145501       32.259     FREE                  NO
2177146201       33.357     FREE                  NO
2177146002       30.700     FREE                  NO
2177155202       34.250     FREE                  NO
2177157901       35.859     FREE                  NO
2177157801       35.887     FREE                  NO
2177164301       38.229     FREE                  NO
2177165201       36.841     FREE                  NO
2178105401       26.001     FREE                  NO
2179155401       55.868     FREE                  NO
2183082601       22.492     FREE                  NO

[CONDUITS]
;;Name           From Node        To Node          Length     Roughness  InOffset   OutOffset  InitFlow   MaxFlow
C_24749          2175073910       2175074902       29.10      0.0250     0.000      0.108      0.0000     0.0000
C_24768          2175074803       2175074908       39.70      0.0160     0.000      0.000      0.0000     0.0000
C_24769          2175074804       2175074803       10.80      0.0160     0.000      0.000      0.0000     0.0000
C_24771          2175074902       2175084001       26.10      0.0250     0.000      0.000      0.0000     0.0000
C_24774          2175074905       2175073910       64.70      0.0160     0.000      0.000      0.0000     0.0000
C_24775          2175074906       2175074905       25.30      0.0160     0.000      0.000      0.0000     0.0000
C_24776          2175074907       2175074906       12.00      0.0160     0.000      0.000      0.0000     0.0000
C_24777          2175074908       2175074907       10.30      0.0160     0.000      0.000      0.0000     0.0000
C_24791          2175075802       2175074804       58.70      0.0160     0.000      0.000      0.0000     0.0000
C_24792          2175075803       2175075802       8.10       0.0130     0.000      0.700      0.0000     0.0000
C_24793          2175075804       2175075803       24.20      0.0130     0.000      0.000      0.0000     0.0000
C_24795          2175075806       2175075804       16.10      0.0130     0.000      0.471      0.0000     0.0000
C_24796          2175075807       2175075804       17.00      0.0130     0.000      0.000      0.0000     0.0000
C_24798          2175075809       2175075807       40.80      0.0130     0.000      0.000      0.0000     0.0000
C_24799          2175075901       2175075806       32.20      0.0130     0.000      0.000      0.0000     0.0000
C_24800          2175075902       2175075901       23.70      0.0130     0.000      0.000      0.0000     0.0000
C_24801          2175075903       2175075902       36.20      0.0130     0.000      0.000      0.0000     0.0000
C_24802          2175075904       2175075903       28.60      0.0130     0.000      0.060      0.0000     0.0000
C_24814          2175076703       2175076801       51.60      0.0130     0.000      0.000      0.0000     0.0000
C_24816          2175076705       2175076703       37.70      0.0130     0.000      0.000      0.0000     0.0000
C_24817          2175076801       2175075809       37.70      0.0130     0.000      0.000      0.0000     0.0000
C_24818          2175076802       2175077803       45.30      0.0130     0.000      0.150      0.0000     0.0000
C_24821          2175076905       2175076802       56.10      0.0130     0.000      0.000      0.0000     0.0000
C_24829          2175077702       2175076705       35.80      0.0130     0.000      0.000      0.0000     0.0000
C_24831          2175077704       2175077706       21.30      0.0130     0.000      0.158      0.0000     0.0000
C_24832          2175077706       2175077702       15.30      0.0130     0.000      0.000      0.0000     0.0000
C_24833          2175077801       2175077704       44.30      0.0130     0.000      0.000      0.0000     0.0000
C_24834          2175077803       2175077801       44.70      0.0130     0.000      0.000      0.0000     0.0000
C_24844          2175078701       2175078702       25.20      0.0160     0.000      0.000      0.0000     0.0000
C_24845          2175078702       2175078703       29.80      0.0160     0.000      0.000      0.0000     0.0000
C_24846          2175078703       2175079605       30.00      0.0160     0.000      0.000      0.0000     0.0000
C_24852          2175079602       2175079603       30.50      0.0250     0.000      0.000      0.0000     0.0000
C_24853          2175079603       2175079604       29.80      0.0250     0.000      0.000      0.0000     0.0000
C_24854          2175079604       2176070701       30.40      0.0250     0.000      0.000      0.0000     0.0000
C_24855          2175079605       2175079602       26.30      0.0250     0.000      0.000      0.0000     0.0000
C_24856          2175084001       2175084002       20.10      0.0250     0.000      0.000      0.0000     0.0000
C_24857          2175084002       2175084003       10.20      0.0250     0.000      0.000      0.0000     0.0000
C_24858          2175084003       2175084004       52.90      0.0250     0.000      0.000      0.0000     0.0000
C_24859          2175084004       2175084102       74.00      0.0250     0.000      0.000      0.0000     0.0000
C_24860          2175084102       2175084101       38.20      0.0250     0.000      0.000      0.0000     0.0000
C_24861          2175085101       2175084201       96.80      0.0160     0.000      0.000      0.0000     0.0000
C_24868          2175086001       2175075904       33.50      0.0130     0.000      0.000      0.0000     0.0000
C_24869          2175086101       2175085101       77.20      0.0160     0.000      0.000      0.0000     0.0000
C_24870          2175086302       2175086301       45.90      0.0250     0.000      0.000      0.0000     0.0000
C_24875          2175087201       2175086302       67.20      0.0250     0.000      0.000      0.0000     0.0000
C_24876          2175087202       2175087201       55.10      0.0160     0.000      0.000      0.0000     0.0000
C_24878          2175087802       2175087701       39.30      0.0250     0.000      0.000      0.0000     0.0000
C_24879          2175088301       2175088401       22.90      0.0160     0.000      0.000      0.0000     0.0000
C_24880          2175088302       2175088301       25.80      0.0160     0.000      0.000      0.0000     0.0000
C_24881          2175088302       2175087202       155.70     0.0160     0.000      0.000      0.0000     0.0000
C_24882          2175088303       2175088302       14.00      0.0160     0.000      0.000      0.0000     0.0000
C_24883          2175088304       2175088303       10.70      0.0160     0.000      0.000      0.0000     0.0000
C_24884          2175088401       2175087401       100.10     0.0160     0.000      0.000      0.0000     0.0000
C_24885          2175088401       2175087201       161.20     0.0160     0.000      0.000      0.0000     0.0000
C_24886          2175088402       2175088401       11.90      0.0160     0.000      0.000      0.0000     0.0000
C_24887          2175088602       2175088601       24.40      0.0250     0.000      0.000      0.0000     0.0000
C_24888          2175089401       2175088303       102.90     0.0250     0.000      0.000      0.0000     0.0000
C_24889          2175089501       2175088602       71.80      0.0250     0.000      0.000      0.0000     0.0000
C_24890          2175089502       2175088402       173.30     0.0160     0.000      0.000      0.0000     0.0000
C_24891          2175089503       2175089401       106.60     0.0250     0.000      0.000      0.0000     0.0000
C_24892          2175089601       2175089502       118.60     0.0160     0.000      0.000      0.0000     0.0000
C_24893          2175089701       2175088701       74.10      0.0250     0.000      0.000      0.0000     0.0000
C_26433          2176045803       2176046601       131.30     0.0250     0.000      0.000      0.0000     0.0000
C_26434          2176045901       2176045803       156.00     0.0250     0.000      0.000      0.0000     0.0000
C_26436          2176046501       2176047501       10.00      0.0160     0.000      0.090      0.0000     0.0000
C_26437          2176046601       2176046501       142.60     0.0250     0.000      0.000      0.0000     0.0000
C_26439          2176047501       2176047502       21.30      0.0250     0.000      0.000      0.0000     0.0000
C_26440          2176047502       2176047503       13.10      0.0250     0.000      0.000      0.0000     0.0000
C_26504          2176056101       2176045901       247.80     0.0250     0.000      0.000      0.0000     0.0000
C_26518          2176057401       2176056101       231.50     0.0250     0.000      0.000      0.0000     0.0000
C_26520          2176057502       2176057401       130.10     0.0250     0.000      0.000      0.0000     0.0000
C_26524          2176057604       2176057502       137.80     0.0250     0.000      0.000      0.0000     0.0000
C_26535          2176058701       2176057604       133.00     0.0250     0.000      0.000      0.0000     0.0000
C_26536          2176058801       2176058701       28.00      0.0160     0.000      0.000      0.0000     0.0000
C_26539          2176059901       2176058801       161.80     0.0250     0.000      0.000      0.0000     0.0000
C_26633          2176069601       2177060401       273.70     0.0250     0.000      0.000      0.0000     0.0000
C_26636          2176069803       2176069804       15.00      0.0250     0.000      0.000      0.0000     0.0000
C_26637          2176069804       2176069601       196.80     0.0250     0.000      0.000      0.0000     0.0000
C_26646          2176070701       2176070702       30.20      0.0250     0.000      0.000      0.0000     0.0000
C_26647          2176070702       2176070703       14.00      0.0160     0.000      0.000      0.0000     0.0000
C_26648          2176070703       2176070706       15.40      0.0250     0.000      0.000      0.0000     0.0000
C_26649          2176070704       2176071705       122.80     0.0160     0.000      0.000      0.0000     0.0000
C_26650          2176070705       2176070704       31.00      0.0160     0.000      0.000      0.0000     0.0000
C_26651          2176070706       2176071701       29.50      0.0250     0.000      0.000      0.0000     0.0000
C_26652          2176070707       2176070705       32.40      0.0160     0.000      0.000      0.0000     0.0000
C_26653          2176070801       2176070707       56.40      0.0160     0.000      0.000      0.0000     0.0000
C_26659          2176071701       2176071702       30.60      0.0250     0.000      0.000      0.0000     0.0000
C_26660          2176071702       2176071703       32.00      0.0250     0.000      0.000      0.0000     0.0000
C_26661          2176071703       2176071704       14.70      0.0160     0.000      0.000      0.0000     0.0000
C_26662          2176071704       2176071706       13.40      0.0250     0.000      0.000      0.0000     0.0000
C_26663          2176071705       2176072801       110.90     0.0160     0.000      0.000      0.0000     0.0000
C_26664          2176071706       2176072704       29.80      0.0250     0.000      0.000      0.0000     0.0000
C_26665          2176071901       2176070801       77.30      0.0160     0.000      0.000      0.0000     0.0000
C_26668          2176072701       2176073601       87.30      0.0250     0.000      0.000      0.0000     0.0000
C_26669          2176072702       2176072703       30.10      0.0250     0.000      0.000      0.0000     0.0000
C_26670          2176072703       2176073801       30.00      0.0250     0.000      0.000      0.0000     0.0000
C_26671          2176072704       2176072702       29.80      0.0250     0.000      0.000      0.0000     0.0000
C_26672          2176072801       2176073803       78.10      0.0160     0.000      0.000      0.0000     0.0000
C_26675          2176073601       2176073602       8.90       0.0160     0.000      0.000      0.0000     0.0000
C_26676          2176073602       2176073603       45.90      0.0250     0.000      0.000      0.0000     0.0000
C_26677          2176073603       2176073604       51.50      0.0250     0.000      0.000      0.0000     0.0000
C_26678          2176073604       2176074501       58.60      0.0250     0.000      0.000      0.0000     0.0000
C_26679          2176073801       2176073802       29.90      0.0250     0.000      0.000      0.0000     0.0000
C_26680          2176073802       2176073804       30.10      0.0250     0.000      0.000      0.0000     0.0000
C_26681          2176073803       2176074801       45.70      0.0160     0.000      0.000      0.0000     0.0000
C_26682          2176073804       2176073806       29.70      0.0250     0.000      0.000      0.0000     0.0000
C_26683          2176073805       2176073803       26.60      0.0160     0.000      0.000      0.0000     0.0000
C_26684          2176073806       2176074802       30.20      0.0250     0.000      0.000      0.0000     0.0000
C_26685          2176073901       2176073805       60.90      0.0160     0.000      0.000      0.0000     0.0000
C_26686          2176073902       2176073901       44.70      0.0160     0.000      0.000      0.0000     0.0000
C_26689          2176074501       2176074502       56.20      0.0250     0.000      0.000      0.0000     0.0000
C_26690          2176074502       2176075501       27.20      0.0250     0.000      0.000      0.0000     0.0000
C_26691          2176074801       2176074804       72.60      0.0160     0.000      0.000      0.0000     0.0000
C_26692          2176074802       2176074803       29.80      0.0250     0.000      0.000      0.0000     0.0000
C_26693          2176074803       2176075801       59.90      0.0250     0.000      0.000      0.0000     0.0000
C_26694          2176074804       2176075901       64.40      0.0160     0.000      0.000      0.0000     0.0000
C_26698          2176075501       2176075502       31.90      0.0250     0.000      0.000      0.0000     0.0000
C_26699          2176075502       2176075503       64.80      0.0250     0.000      0.000      0.0000     0.0000
C_26700          2176075503       2176076501       23.10      0.0250     0.000      0.000      0.0000     0.0000
C_26701          2176075801       2176075802       29.90      0.0250     0.000      0.000      0.0000     0.0000
C_26702          2176075802       2176075803       30.30      0.0250     0.000      0.000      0.0000     0.0000
C_26703          2176075803       2176075903       29.50      0.0250     0.000      0.000      0.0000     0.0000
C_26704          2176075901       2176075902       45.00      0.0160     0.000      0.000      0.0000     0.0000
C_26705          2176075902       2176076902       69.50      0.0160     0.000      0.000      0.0000     0.0000
C_26706          2176075903       2176076901       30.70      0.0250     0.000      0.000      0.0000     0.0000
C_26709          2176076401       2176076402       34.40      0.0250     0.000      0.350      0.0000     0.0000
C_26710          2176076402       2176076403       32.30      0.0250     0.000      0.000      0.0000     0.0000
C_26711          2176076403       2176076405       17.60      0.0160     0.000      0.000      0.0000     0.0000
C_26713          2176076405       2176076406       10.00      0.0250     0.000      0.280      0.0000     0.0000
C_26714          2176076406       2176077405       19.20      0.0250     0.000      0.000      0.0000     0.0000
C_26715          2176076501       2176076401       27.30      0.0250     0.000      0.000      0.0000     0.0000
C_26716          2176076502       2176076503       30.00      0.0250     0.000      0.000      0.0000     0.0000
C_26717          2176076503       2176076406       39.70      0.0250     0.000      0.000      0.0000     0.0000
C_26718          2176076504       2176076502       29.90      0.0250     0.000      0.000      0.0000     0.0000
C_26719          2176076601       2176076602       29.50      0.0250     0.000      0.000      0.0000     0.0000
C_26720          2176076602       2176076603       30.10      0.0250     0.000      0.000      0.0000     0.0000
C_26721          2176076603       2176076604       29.80      0.0250     0.000      0.000      0.0000     0.0000
C_26722          2176076604       2176076504       30.10      0.0250     0.000      0.000      0.0000     0.0000
C_26723          2176076701       2176076601       30.00      0.0250     0.000      0.000      0.0000     0.0000
C_26724          2176076702       2176076701       30.00      0.0250     0.000      0.000      0.0000     0.0000
C_26725          2176076703       2176076702       29.70      0.0250     0.000      0.000      0.0000     0.0000
C_26726          2176076801       2176076703       29.80      0.0250     0.000      0.000      0.0000     0.0000
C_26727          2176076901       2176076903       30.60      0.0250     0.000      0.000      0.0000     0.0000
C_26728          2176076902       2176076904       55.60      0.0160     0.000      0.425      0.0000     0.0000
C_26729          2176076903       2176076906       44.90      0.0250     0.000      0.500      0.0000     0.0000
C_26730          2176076904       2176076905       29.90      0.0250     0.000      0.000      0.0000     0.0000
C_26731          2176076905       2176076906       23.90      0.0250     0.000      0.000      0.0000     0.0000
C_26732          2176076906       2176077901       46.00      0.0160     0.000      0.000      0.0000     0.0000
C_26734          2176077402       2176077403       21.00      0.0250     0.000      0.000      0.0000     0.0000
C_26735          2176077403       2176077404       29.80      0.0250     0.000      0.000      0.0000     0.0000
C_26736          2176077404       2176078401       64.50      0.0250     0.000      0.000      0.0000     0.0000
C_26737          2176077405       2176077402       16.20      0.0250     0.000      0.000      0.0000     0.0000
C_26739          2176077801       2176076801       29.70      0.0250     0.000      0.000      0.0000     0.0000
C_26740          2176077802       2176077803       10.40      0.0250     0.000      0.643      0.0000     0.0000
C_26741          2176077803       2176077805       10.20      0.0160     0.000      0.000      0.0000     0.0000
C_26742          2176077804       2176077801       16.90      0.0250     0.000      0.000      0.0000     0.0000
C_26743          2176077805       2176077804       21.30      0.0250     0.000      0.000      0.0000     0.0000
C_26744          2176077901       2176077802       19.80      0.0250     0.000      0.000      0.0000     0.0000
C_26745          2176078101       2176079001       138.50     0.0250     0.000      0.000      0.0000     0.0000
C_26746          2176078201       2176078101       58.20      0.0250     0.000      0.000      0.0000     0.0000
C_26747          2176078301       2176078201       81.20      0.0250     0.000      0.000      0.0000     0.0000
C_26748          2176078302       2176078301       34.40      0.0250     0.000      0.000      0.0000     0.0000
C_26749          2176078401       2176078302       118.30     0.0250     0.000      0.000      0.0000     0.0000
C_26753          2176079001       2176069803       151.80     0.0250     0.000      0.000      0.0000     0.0000
C_26757          2176080601       2175089503       97.60      0.0250     0.000      0.000      0.0000     0.0000
C_26758          2176080602       2176080601       78.70      0.0250     0.000      0.000      0.0000     0.0000
C_26759          2176080602       2176080701       79.10      0.0160     0.000      0.000      0.0000     0.0000
C_26760          2176080701       2175089701       66.50      0.0250     0.000      0.000      0.0000     0.0000
C_26761          2176080702       2175089601       169.60     0.0160     0.000      0.000      0.0000     0.0000
C_26763          2176080901       2175089901       77.00      0.0160     0.000      0.000      0.0000     0.0000
C_26764          2176080902       2176080901       23.30      0.0160     0.000      0.000      0.0000     0.0000
C_26765          2176081001       2176071901       91.30      0.0160     0.000      0.000      0.0000     0.0000
C_26766          2176081701       2176080602       51.10      0.0250     0.000      0.000      0.0000     0.0000
C_26768          2176081802       2176080702       107.10     0.0160     0.000      0.000      0.0000     0.0000
C_26769          2176081803       2176080702       65.90      0.0160     0.000      0.000      0.0000     0.0000
C_26770          2176081804       2176081701       98.80      0.0250     0.000      0.000      0.0000     0.0000
C_26771          2176082801       2176081804       107.90     0.0250     0.000      0.000      0.0000     0.0000
C_26772          2176082901       2176081803       121.10     0.0160     0.000      0.000      0.0000     0.0000
C_26773          2176083901       2176082801       76.20      0.0250     0.000      0.000      0.0000     0.0000
C_26774          2176084001       2176073902       44.70      0.0160     0.000      0.000      0.0000     0.0000
C_26775          2176086001       2176076904       30.70      0.0250     0.000      0.000      0.0000     0.0000
C_26776          2176086002       2176086003       23.70      0.0250     0.000      0.000      0.0000     0.0000
C_26777          2176086003       2176086001       29.80      0.0250     0.000      0.000      0.0000     0.0000
C_26778          2176086004       2176086002       17.20      0.0160     0.000      0.000      0.0000     0.0000
C_26779          2176086101       2176086102       30.00      0.0250     0.000      0.000      0.0000     0.0000
C_26780          2176086102       2176086103       30.10      0.0250     0.000      0.000      0.0000     0.0000
C_26781          2176086103       2176086004       18.80      0.0250     0.000      0.000      0.0000     0.0000
C_26782          2176086201       2176086202       29.90      0.0250     0.000      0.000      0.0000     0.0000
C_26783          2176086202       2176086203       30.20      0.0250     0.000      0.000      0.0000     0.0000
C_26784          2176086203       2176086204       29.90      0.0250     0.000      0.000      0.0000     0.0000
C_26785          2176086204       2176086101       29.90      0.0250     0.000      0.000      0.0000     0.0000
C_26786          2176086301       2176086201       30.00      0.0250     0.000      0.000      0.0000     0.0000
C_26787          2176086302       2176086301       29.70      0.0250     0.000      0.000      0.0000     0.0000
C_26788          2176086303       2176086302       30.20      0.0250     0.000      0.000      0.0000     0.0000
C_26789          2176086401       2176086303       29.20      0.0250     0.000      0.000      0.0000     0.0000
C_26790          2176086402       2176086401       30.00      0.0250     0.000      0.000      0.0000     0.0000
C_26791          2176087001       2176086002       77.70      0.0160     0.000      0.000      0.0000     0.0000
C_26792          2176087002       2176086002       77.50      0.0160     0.000      0.797      0.0000     0.0000
C_26793          2176087401       2176086402       30.00      0.0250     0.000      0.000      0.0000     0.0000
C_26794          2176087402       2176087401       30.00      0.0250     0.000      0.000      0.0000     0.0000
C_26795          2176087403       2176087402       29.70      0.0250     0.000      0.000      0.0000     0.0000
C_26796          2176087501       2176087403       30.10      0.0250     0.000      0.000      0.0000     0.0000
C_26797          2176088001       2176087001       134.20     0.0160     0.000      0.000      0.0000     0.0000
C_26798          2176088002       2176087002       133.80     0.0160     0.000      0.000      0.0000     0.0000
C_26799          2176088501       2176087501       29.90      0.0250     0.000      0.000      0.0000     0.0000
C_26800          2176088502       2176088501       30.10      0.0250     0.000      0.000      0.0000     0.0000
C_26801          2176088503       2176088502       29.80      0.0250     0.000      0.000      0.0000     0.0000
C_26802          2176088504       2176088503       29.90      0.0250     0.000      0.000      0.0000     0.0000
C_26803          2176088601       2176088504       30.10      0.0250     0.000      0.000      0.0000     0.0000
C_26804          2176088701       2176089701       65.20      0.0250     0.000      0.000      0.0000     0.0000
C_26805          2176088801       2176088802       45.40      0.0250     0.000      0.000      0.0000     0.0000
C_26806          2176088802       2176088701       50.90      0.0250     0.000      0.000      0.0000     0.0000
C_26807          2176088901       2176088902       43.90      0.0250     0.000      0.000      0.0000     0.0000
C_26808          2176088902       2176088801       44.20      0.0250     0.000      0.000      0.0000     0.0000
C_26809          2176089501       2176089607       29.40      0.0250     0.000      0.000      0.0000     0.0000
C_26810          2176089502       2176089501       29.50      0.0250     0.000      0.000      0.0000     0.0000
C_26811          2176089601       2176088601       14.10      0.0250     0.000      0.000      0.0000     0.0000
C_26812          2176089602       2176089601       24.40      0.0160     0.000      0.000      0.0000     0.0000
C_26813          2176089603       2176089605       41.20      0.0250     0.000      1.462      0.0000     0.0000
C_26814          2176089604       2176089602       21.00      0.0250     0.000      0.000      0.0000     0.0000
C_26815          2176089605       2176089604       17.30      0.0250     0.064      0.000      0.0000     0.0000
C_26816          2176089606       2176089605       12.20      0.0250     0.000      0.064      0.0000     0.0000
C_26817          2176089607       2176089605       40.70      0.0250     0.000      0.000      0.0000     0.0000
C_26818          2176089608       2176089606       30.20      0.0250     0.000      0.000      0.0000     0.0000
C_26819          2176089701       2176089603       46.90      0.0250     0.000      0.000      0.0000     0.0000
C_26820          2176091001       2176081802       130.70     0.0160     0.000      0.000      0.0000     0.0000
C_26821          2176092101       2176091001       168.30     0.0160     0.000      0.000      0.0000     0.0000
C_26822          2176092201       2176091201       124.40     0.0160     0.000      0.000      0.0000     0.0000
C_26823          2176092502       2176092501       33.50      0.0160     0.000      0.000      0.0000     0.0000
C_26824          2176093001       2176082901       170.90     0.0160     0.000      0.000      0.0000     0.0000
C_26825          2176093002       2176083901       98.40      0.0250     0.000      0.000      0.0000     0.0000
C_26827          2176093102       2176093001       73.20      0.0160     0.000      0.000      0.0000     0.0000
C_26829          2176093201       2176092101       138.00     0.0160     0.000      0.000      0.0000     0.0000
C_26830          2176093301       2176093201       114.50     0.0160     0.000      0.000      0.0000     0.0000
C_26831          2176093401       2176093301       96.50      0.0160     0.000      0.000      0.0000     0.0000
C_26832          2176093501       2176092502       88.90      0.0160     0.000      0.000      0.0000     0.0000
C_26833          2176093502       2176093401       34.50      0.0160     0.000      0.000      0.0000     0.0000
C_26834          2176093701       2176093502       180.00     0.0160     0.000      0.000      0.0000     0.0000
C_26835          2176093901       2176092901       45.50      0.0160     0.000      0.000      0.0000     0.0000
C_26836          2176093902       2176093901       35.20      0.0160     0.000      0.000      0.0000     0.0000
C_26837          2176093903       2176093902       26.60      0.0160     0.000      0.000      0.0000     0.0000
C_26838          2176093904       2176093903       13.70      0.0160     0.000      0.000      0.0000     0.0000
C_26839          2176094001       2176093002       77.10      0.0250     0.000      0.000      0.0000     0.0000
C_26840          2176094201       2176093102       120.50     0.0160     0.000      0.000      0.0000     0.0000
C_26841          2176094202       2176094201       50.30      0.0160     0.000      0.000      0.0000     0.0000
C_26842          2176094401       2176093401       92.00      0.0160     0.000      0.000      0.0000     0.0000
C_26843          2176094501       2176095401       84.90      0.0160     0.000      0.000      0.0000     0.0000
C_26844          2176094502       2176094501       53.30      0.0160     0.000      0.000      0.0000     0.0000
C_26845          2176094901       2176093904       28.90      0.0160     0.000      0.000      0.0000     0.0000
C_26846          2176094902       2176093701       234.60     0.0160     0.900      0.000      0.0000     0.0000
C_26847          2176094902       2176094901       23.60      0.0160     0.000      0.000      0.0000     0.0000
C_26850          2176095301       2176094202       100.60     0.0160     0.000      0.000      0.0000     0.0000
C_26851          2176095401       2176094401       53.10      0.0160     0.000      0.000      0.0000     0.0000
C_26852          2176095402       2176095301       95.60      0.0160     0.000      0.000      0.0000     0.0000
C_26853          2176095701       2176094502       148.70     0.0160     0.000      0.000      0.0000     0.0000
C_26854          2176095801       2176095701       153.60     0.0160     0.000      0.000      0.0000     0.0000
C_26855          2176095901       2176104002       154.90     0.0160     1.116      0.000      0.0000     0.0000
C_26857          2176096901       2176095901       89.80      0.0160     0.000      1.116      0.0000     0.0000
C_26858          2176098001       2176088901       36.80      0.0250     0.000      0.000      0.0000     0.0000
C_26859          2176099901       2176099902       31.60      0.0160     0.000      0.000      0.0000     0.0000
C_26860          2176099902       2177090801       32.10      0.0160     0.000      0.000      0.0000     0.0000
C_26864          2176101101       2176101102       14.80      0.0250     0.000      0.000      0.0000     0.0000
C_26865          2176101401       2176100401       85.90      0.0160     0.000      0.000      0.0000     0.0000
C_26866          2176102002       2176102001       30.60      0.0160     0.000      0.000      0.0000     0.0000
C_26867          2176102101       2176101101!      109.40     0.0250     0.000      0.000      0.0000     0.0000
C_26868          2176102101       2176102102       22.80      0.0250     0.000      0.000      0.0000     0.0000
C_26869          2176102102       2176102201       49.50      0.0250     0.000      0.000      0.0000     0.0000
C_26870          2176102201       2176101201       97.60      0.0250     0.000      0.000      0.0000     0.0000
C_26871          2176102401       2176101401       140.40     0.0160     0.000      0.000      0.0000     0.0000
C_26872          2176102501       2176101401       151.30     0.0160     0.000      0.000      0.0000     0.0000
C_26873          2176103001       2176102002       49.80      0.0160     0.000      0.000      0.0000     0.0000
C_26874          2176103101       2176102101       23.80      0.0250     0.000      0.000      0.0000     0.0000
C_26875          2176103102       2176103101       51.00      0.0250     0.000      0.000      0.0000     0.0000
C_26878          2176104002       2176094902       71.60      0.0160     0.000      0.900      0.0000     0.0000
C_26879          2176104003       2176104002       64.50      0.0160     0.000      0.000      0.0000     0.0000
C_26881          2176104102       2176104003       69.50      0.0160     0.000      0.000      0.0000     0.0000
C_26882          2176104103       2176104102       18.80      0.0160     0.000      0.000      0.0000     0.0000
C_26883          2176104201       2176104102       100.10     0.0160     0.000      0.000      0.0000     0.0000
C_26884          2176104301       2176102401       171.00     0.0160     0.000      0.000      0.0000     0.0000
C_26885          2176104302       2176104201       82.80      0.0160     0.000      0.000      0.0000     0.0000
C_26886          2176104601       2176102501       150.00     0.0160     0.000      0.000      0.0000     0.0000
C_26890          2176104904       2176105901       44.40      0.0250     0.000      0.000      0.0000     0.0000
C_26891          2176105101       2176104103       41.00      0.0160     0.000      0.000      0.0000     0.0000
C_26892          2176105102       2176105101       32.40      0.0160     0.000      0.000      0.0000     0.0000
C_26893          2176105103       2176105102       55.40      0.0160     0.000      0.000      0.0000     0.0000
C_26894          2176105104       2176105103       11.20      0.0160     0.000      0.000      0.0000     0.0000
C_26895          2176105301       2176104302       69.60      0.0160     0.000      0.000      0.0000     0.0000
C_26896          2176105401       2176105301       45.40      0.0160     0.000      0.000      0.0000     0.0000
C_26897          2176105601       2176104601       113.40     0.0160     0.000      0.000      0.0000     0.0000
C_26898          2176106101       2176105104       20.10      0.0160     0.000      0.000      0.0000     0.0000
C_26899          2176106102       2176106101       28.80      0.0160     0.000      0.000      0.0000     0.0000
C_26900          2176106103       2176106102       33.40      0.0160     0.000      0.000      0.0000     0.0000
C_26901          2176106201       2176106103       37.70      0.0160     0.000      0.000      0.0000     0.0000
C_26902          2176106501       2176105401       157.20     0.0160     0.000      0.000      0.0000     0.0000
C_26903          2176106601       2176106602       15.70      0.0160     0.000      0.000      0.0000     0.0000
C_26904          2176106602       2176106603       21.60      0.0160     0.000      0.000      0.0000     0.0000
C_26905          2176106603       2176107601       29.90      0.0160     0.000      0.000      0.0000     0.0000
C_26906          2176107101       2176096901       185.90     0.0160     0.000      0.000      0.0000     0.0000
C_26907          2176107201       2176107101       87.20      0.0160     0.000      0.000      0.0000     0.0000
C_26908          2176107202       2176107201       42.40      0.0160     0.000      0.000      0.0000     0.0000
C_26909          2176107601       2176107602       30.30      0.0160     0.000      0.000      0.0000     0.0000
C_26910          2176107602       2176107701       27.80      0.0160     0.000      0.000      0.0000     0.0000
C_26911          2176107701       2176107702       36.10      0.0160     0.000      0.000      0.0000     0.0000
C_26912          2176107702       2176107703       39.00      0.0160     0.000      0.000      0.0000     0.0000
C_26913          2176107703       2176108701       43.10      0.0160     0.000      0.000      0.0000     0.0000
C_26914          2176107801       2176106801       47.70      0.0250     0.000      0.000      0.0000     0.0000
C_26915          2176107802       2176107801       36.20      0.0250     0.000      0.000      0.0000     0.0000
C_26916          2176107803       2176107802       22.30      0.0250     0.000      0.000      0.0000     0.0000
C_26917          2176108301       2176107202       113.10     0.0160     0.000      0.000      0.0000     0.0000
C_26918          2176108401       2176108301       62.30      0.0160     0.000      0.000      0.0000     0.0000
C_26919          2176108701       2176108801       20.90      0.0250     0.000      0.000      0.0000     0.0000
C_26920          2176108702       2176108701       11.20      0.0250     0.000      0.000      0.0000     0.0000
C_26921          2176108703       2176108702       22.70      0.0250     0.000      0.000      0.0000     0.0000
C_26922          2176108704       2176108703       35.00      0.0250     0.000      0.000      0.0000     0.0000
C_26923          2176108801       2176107803       19.00      0.0250     0.000      0.000      0.0000     0.0000
C_26924          2176109301       2176109302       15.50      0.0250     0.000      0.000      0.0000     0.0000
C_26925          2176109302       2177100301       21.70      0.0250     0.000      0.000      0.0000     0.0000
C_26926          2176109701       2176108704       26.80      0.0250     0.000      0.000      0.0000     0.0000
C_26927          2176109702       2176109701       28.10      0.0250     0.000      0.000      0.0000     0.0000
C_26928          2176109703       2176109702       22.50      0.0160     0.000      0.000      0.0000     0.0000
C_26929          2176109704       2176109703       13.90      0.0160     0.000      0.000      0.0000     0.0000
C_26930          2176109705       2176109704       23.10      0.0250     0.000      0.000      0.0000     0.0000
C_26967          2176116301       2176116302       24.80      0.0250     0.000      0.000      0.0000     0.0000
C_26972          2176118002       2176118001       6.10       0.0250     0.000      0.000      0.0000     0.0000
C_26973          2176118003       2176118002       6.10       0.0160     0.000      0.000      0.0000     0.0000
C_26974          2176118004       2176118003       38.60      0.0250     0.000      0.000      0.0000     0.0000
C_26975          2176118502       2176118501       47.20      0.0160     0.000      0.000      0.0000     0.0000
C_26976          2176118503       2176118502       36.00      0.0160     0.000      0.000      0.0000     0.0000
C_26977          2176119001       2176118004       25.00      0.0250     0.000      0.000      0.0000     0.0000
C_26978          2176119002       2176119001       50.50      0.0250     0.000      0.000      0.0000     0.0000
C_26979          2176119003       2176119002       22.60      0.0250     0.000      0.000      0.0000     0.0000
C_26980          2176119101       2176119002       123.30     0.0160     0.000      0.000      0.0000     0.0000
C_26981          2176119102       2176119101       10.00      0.0160     0.000      0.000      0.0000     0.0000
C_26982          2176119901       2176118801       108.50     0.0160     0.000      0.000      0.0000     0.0000
C_26988          2176127201       2176127202       77.90      0.0160     0.000      0.000      0.0000     0.0000
C_26989          2176129501       2176129602       19.50      0.0250     0.000      0.000      0.0000     0.0000
C_26990          2176129602       2176129601       49.20      0.0250     0.000      0.000      0.0000     0.0000
C_27068          2176138202       2176138203       14.90      0.0250     0.000      0.000      0.0000     0.0000
C_27069          2176138301       2176138302       62.60      0.0250     0.000      0.000      0.0000     0.0000
C_27070          2176138401       2176138301       50.90      0.0250     0.000      0.000      0.0000     0.0000
C_27898          2177060001       2176059901       152.60     0.0250     0.000      0.000      0.0000     0.0000
C_27901          2177060201       2177060001       183.10     0.0250     0.000      0.000      0.0000     0.0000
C_27902          2177060401       2177060201       144.40     0.0250     0.000      0.000      0.0000     0.0000
C_28051          2177080101       2176088002       132.90     0.0160     0.136      0.000      0.0000     0.0000
C_28052          2177080201       2177080304       29.70      0.0250     0.000      0.000      0.0000     0.0000
C_28053          2177080301       2177080404       30.10      0.0250     0.000      0.000      0.0000     0.0000
C_28054          2177080302       2177080301       30.00      0.0250     0.000      0.000      0.0000     0.0000
C_28055          2177080303       2177080302       30.00      0.0250     0.000      0.000      0.0000     0.0000
C_28056          2177080304       2177080303       30.10      0.0250     0.000      0.000      0.0000     0.0000
C_28057          2177080401       2177080501       30.10      0.0250     0.000      0.000      0.0000     0.0000
C_28058          2177080402       2177080401       30.50      0.0250     0.000      0.000      0.0000     0.0000
C_28059          2177080403       2177080402       30.30      0.0250     0.000      0.000      0.0000     0.0000
C_28060          2177080404       2177080403       29.30      0.0250     0.000      0.000      0.0000     0.0000
C_28061          2177080501       2176089502       30.20      0.0250     0.000      0.000      0.0000     0.0000
C_28062          2177080601       2176089608       30.00      0.0250     0.000      0.000      0.0000     0.0000
C_28063          2177080602       2177080601       29.90      0.0250     0.000      0.000      0.0000     0.0000
C_28064          2177080701       2177080602       29.80      0.0250     0.000      0.000      0.0000     0.0000
C_28071          2177081102       2177081203       15.00      0.0250     0.000      0.000      0.0000     0.0000
C_28072          2177081103       2177081102       32.70      0.0250     0.000      0.000      0.0000     0.0000
C_28073          2177081104       2177081103       21.20      0.0250     0.000      0.000      0.0000     0.0000
C_28074          2177081105       2177081104       28.60      0.0250     1.496      0.000      0.0000     0.0000
C_28077          2177081202       2177080101       166.60     0.0160     0.000      0.000      0.0000     0.0000
C_28079          2177081203       2177081202       31.90      0.0160     0.000      0.717      0.0000     0.0000
C_28080          2177081701       2177080701       30.20      0.0250     0.000      0.000      0.0000     0.0000
C_28081          2177081702       2177081701       29.80      0.0250     0.000      0.000      0.0000     0.0000
C_28082          2177081703       2177081702       25.70      0.0250     0.000      0.000      0.0000     0.0000
C_28083          2177081704       2177081703       2.90       0.0160     0.000      0.000      0.0000     0.0000
C_28084          2177081705       2177081704       1.80       0.0250     0.000      0.000      0.0000     0.0000
C_28085          2177081706       2177081705       29.90      0.0250     0.000      0.000      0.0000     0.0000
C_28087          2177082101       2177081105       51.50      0.0250     0.000      0.000      0.0000     0.0000
C_28089          2177082103       2177082101       42.10      0.0250     0.000      0.000      0.0000     0.0000
C_28090          2177082701       2177081706       29.90      0.0250     0.000      0.000      0.0000     0.0000
C_28091          2177082801       2177082701       30.10      0.0250     0.000      0.000      0.0000     0.0000
C_28092          2177082802       2177082801       29.90      0.0250     0.000      0.000      0.0000     0.0000
C_28093          2177082803       2177082802       13.70      0.0160     0.000      0.000      0.0000     0.0000
C_28094          2177082804       2177082803       2.10       0.0160     0.000      0.000      0.0000     0.0000
C_28095          2177082805       2177082804       14.20      0.0250     0.000      0.000      0.0000     0.0000
C_28096          2177082806       2177082805       30.00      0.0250     0.000      0.000      0.0000     0.0000
C_28099          2177083201       2177082103       29.70      0.0250     0.000      0.000      0.0000     0.0000
C_28100          2177083202       2177083201       28.20      0.0250     0.000      0.000      0.0000     0.0000
C_28101          2177083203       2177083202       32.40      0.0250     0.000      0.000      0.0000     0.0000
C_28102          2177083801       2177082806       29.80      0.0250     0.000      0.000      0.0000     0.0000
C_28103          2177083802       2177083801       30.00      0.0250     0.000      0.000      0.0000     0.0000
C_28104          2177083901       2177083802       18.00      0.0250     0.000      0.000      0.0000     0.0000
C_28105          2177083902       2177083901       26.50      0.0160     0.000      0.000      0.0000     0.0000
C_28106          2177083903       2177083902       15.40      0.0250     0.000      0.000      0.0000     0.0000
C_28108          2177084201       2177083203       46.60      0.0250     0.000      0.000      0.0000     0.0000
C_28111          2177084301       2177084201       111.00     0.0250     0.000      0.000      0.0000     0.0000
C_28112          2177084901       2177083903       30.00      0.0250     0.000      0.000      0.0000     0.0000
C_28113          2177084902       2177084901       29.90      0.0250     0.000      0.000      0.0000     0.0000
C_28114          2177084903       2177084902       30.10      0.0250     0.000      0.000      0.0000     0.0000
C_28115          2177084904       2177084903       15.80      0.0250     0.000      0.000      0.0000     0.0000
C_28125          2177090701       2177091701       32.10      0.0160     0.000      0.000      0.0000     0.0000
C_28126          2177090801       2177090802       31.20      0.0160     0.000      0.000      0.0000     0.0000
C_28127          2177090802       2177090803       31.90      0.0160     0.000      0.000      0.0000     0.0000
C_28128          2177090803       2177090804       31.80      0.0160     0.000      0.000      0.0000     0.0000
C_28129          2177090804       2177090701       31.00      0.0160     0.000      0.000      0.0000     0.0000
C_28130          2177091701       2177091702       33.00      0.0250     0.000      0.000      0.0000     0.0000
C_28131          2177091702       2177091703       35.50      0.0250     0.000      0.000      0.0000     0.0000
C_28132          2177091703       2177091704       11.60      0.0250     0.000      0.000      0.0000     0.0000
C_28133          2177091704       2177092501       145.00     0.0160     0.000      0.000      0.0000     0.0000
C_28134          2177091705       2177091703       8.30       0.0250     0.000      0.000      0.0000     0.0000
C_28138          2177091708       2177091705       19.20      0.0250     0.000      0.239      0.0000     0.0000
C_28139          2177092401       2177092402       31.40      0.0250     0.000      0.000      0.0000     0.0000
C_28140          2177092402       2177093401       32.10      0.0250     0.000      0.000      0.0000     0.0000
C_28141          2177092403       2177093402       33.20      0.0250     0.000      0.000      0.0000     0.0000
C_28142          2177092501       2177092504       23.80      0.0250     0.000      0.000      0.0000     0.0000
C_28143          2177092502       2177092503       5.80       0.0160     0.000      0.000      0.0000     0.0000
C_28144          2177092503       2177092505       13.90      0.0250     0.000      0.000      0.0000     0.0000
C_28145          2177092504       2177092506       31.80      0.0250     0.000      0.000      0.0000     0.0000
C_28146          2177092505       2177092507       19.70      0.0250     0.000      0.000      0.0000     0.0000
C_28147          2177092506       2177092508       31.60      0.0250     0.000      0.000      0.0000     0.0000
C_28148          2177092507       2177092509       21.80      0.0250     0.000      0.000      0.0000     0.0000
C_28149          2177092508       2177092401       31.90      0.0250     0.000      0.000      0.0000     0.0000
C_28150          2177092509       2177092510       31.90      0.0250     0.000      0.000      0.0000     0.0000
C_28151          2177092510       2177092403       30.40      0.0250     0.000      0.000      0.0000     0.0000
C_28152          2177092601       2177092602       6.80       0.0160     0.000      0.000      0.0000     0.0000
C_28153          2177092602       2177092603       8.10       0.0160     0.000      0.000      0.0000     0.0000
C_28154          2177092603       2177092604       11.20      0.0160     0.000      0.000      0.0000     0.0000
C_28155          2177092604       2177092605       11.60      0.0160     0.000      0.000      0.0000     0.0000
C_28156          2177092605       2177092502       13.20      0.0250     0.000      0.000      0.0000     0.0000
C_28157          2177092701       2177091708       28.80      0.0250     0.000      0.000      0.0000     0.0000
C_28158          2177092702       2177092701       27.60      0.0250     0.000      0.000      0.0000     0.0000
C_28159          2177092703       2177092702       30.10      0.0250     0.000      0.000      0.0000     0.0000
C_28160          2177092801       2177092703       30.10      0.0250     0.000      0.000      0.0000     0.0000
C_28161          2177092802       2177092801       27.60      0.0250     0.000      0.000      0.0000     0.0000
C_28162          2177093201       2177093202       31.80      0.0250     0.000      0.000      0.0000     0.0000
C_28163          2177093202       2177093203       31.40      0.0250     0.000      0.000      0.0000     0.0000
C_28164          2177093203       2177093205       32.00      0.0250     0.000      0.000      0.0000     0.0000
C_28165          2177093204       2177093206       31.20      0.0250     0.000      0.000      0.0000     0.0000
C_28166          2177093205       2177094101       31.60      0.0250     0.000      0.000      0.0000     0.0000
C_28167          2177093206       2177094201       32.00      0.0250     0.000      0.000      0.0000     0.0000
C_28168          2177093301       2177093302       31.60      0.0250     0.000      0.000      0.0000     0.0000
C_28169          2177093302       2177093304       31.70      0.0250     0.000      0.000      0.0000     0.0000
C_28170          2177093303       2177093305       32.20      0.0250     0.000      0.000      0.0000     0.0000
C_28171          2177093304       2177093201       31.60      0.0250     0.000      0.000      0.0000     0.0000
C_28172          2177093305       2177093306       31.30      0.0250     0.000      0.000      0.0000     0.0000
C_28173          2177093306       2177093307       32.30      0.0250     0.000      0.000      0.0000     0.0000
C_28174          2177093307       2177093204       31.40      0.0250     0.000      0.000      0.0000     0.0000
C_28175          2177093401       2177093301       31.40      0.0250     0.000      0.000      0.0000     0.0000
C_28176          2177093402       2177093403       32.40      0.0250     0.000      0.000      0.0000     0.0000
C_28177          2177093403       2177093303       31.30      0.0250     0.000      0.000      0.0000     0.0000
C_28178          2177093801       2177092802       32.20      0.0250     0.000      0.000      0.0000     0.0000
C_28179          2177093802       2177093801       33.00      0.0250     0.000      0.000      0.0000     0.0000
C_28180          2177093803       2177093802       28.20      0.0250     0.000      0.000      0.0000     0.0000
C_28181          2177093901       2177093803       30.20      0.0250     0.000      0.000      0.0000     0.0000
C_28182          2177094001       2177094002       31.70      0.0250     0.000      0.000      0.0000     0.0000
C_28183          2177094002       2177094004       31.50      0.0250     0.000      0.000      0.0000     0.0000
C_28184          2177094003       2177094005       32.00      0.0250     0.000      0.000      0.0000     0.0000
C_28185          2177094004       2177094006       31.40      0.0250     0.000      0.000      0.0000     0.0000
C_28186          2177094005       2177094007       34.30      0.0250     0.000      0.000      0.0000     0.0000
C_28187          2177094006       2177084904       11.20      0.0250     0.000      0.000      0.0000     0.0000
C_28188          2177094007       2177094008       37.00      0.0250     0.000      0.000      0.0000     0.0000
C_28189          2177094008       2177084904       14.10      0.0250     0.000      0.000      0.0000     0.0000
C_28190          2177094101       2177094102       31.60      0.0250     0.000      0.000      0.0000     0.0000
C_28191          2177094102       2177094104       27.20      0.0250     0.000      0.000      0.0000     0.0000
C_28192          2177094103       2177094105       19.40      0.0250     0.000      0.000      0.0000     0.0000
C_28193          2177094104       2177094106       20.60      0.0160     0.000      0.000      0.0000     0.0000
C_28194          2177094105       2177094107       24.70      0.0160     0.000      0.000      0.0000     0.0000
C_28195          2177094106       2177094001       15.80      0.0160     0.000      0.000      0.0000     0.0000
C_28196          2177094107       2177094108       18.90      0.0250     0.000      0.000      0.0000     0.0000
C_28197          2177094108       2177094003       31.10      0.0250     0.000      0.000      0.0000     0.0000
C_28198          2177094201       2177094103       32.10      0.0250     0.000      0.000      0.0000     0.0000
C_28199          2177094901       2177093901       29.80      0.0250     0.000      0.000      0.0000     0.0000
C_28200          2177094902       2177094901       29.60      0.0250     0.000      0.000      0.0000     0.0000
C_28201          2177094903       2177094902       30.20      0.0250     0.000      0.000      0.0000     0.0000
C_28202          2177094904       2177094903       27.80      0.0250     0.000      0.000      0.0000     0.0000
C_28203          2177094905       2177094904       15.90      0.0250     0.000      0.000      0.0000     0.0000
C_28204          2177095001       2177094008       29.90      0.0250     0.000      0.000      0.0000     0.0000
C_28205          2177095002       2177095001       30.00      0.0250     0.000      0.000      0.0000     0.0000
C_28206          2177095003       2177095002       9.90       0.0250     0.000      0.000      0.0000     0.0000
C_28207          2177095004       2177095003       3.30       0.0160     0.000      0.000      0.0000     0.0000
C_28208          2177095005       2177095006       10.40      0.0250     0.000      0.000      0.0000     0.0000
C_28209          2177095006       2177095004       9.50       0.0250     0.000      0.000      0.0000     0.0000
C_28210          2177095007       2177095005       27.20      0.0250     0.000      0.000      0.0000     0.0000
C_28211          2177095101       2177095007       29.90      0.0250     0.000      0.000      0.0000     0.0000
C_28212          2177095901!      2177095902!      12.90      0.0160     0.000      0.000      0.0000     0.0000
C_28213          2177095901       2177095902       12.90      0.0160     0.000      0.000      0.0000     0.0000
C_28214          2177095902!      2177096901!      13.60      0.0250     0.000      0.000      0.0000     0.0000
C_28215          2177095902       2177096901       13.60      0.0250     0.000      0.000      0.0000     0.0000
C_28216          2177096101       2177095101       29.90      0.0250     0.000      0.000      0.0000     0.0000
C_28217          2177096102       2177096101       30.00      0.0250     0.000      0.000      0.0000     0.0000
C_28218          2177096103       2177096102       30.00      0.0250     0.000      0.000      0.0000     0.0000
C_28219          2177096104       2177096103       29.90      0.0250     0.000      0.000      0.0000     0.0000
C_28220          2177096201       2177096104       29.90      0.0250     0.000      0.000      0.0000     0.0000
C_28221          2177096202       2177096201       30.00      0.0250     0.000      0.000      0.0000     0.0000
C_28222          2177096801!      2177096802!      2.10       0.0160     0.000      0.000      0.0000     0.0000
C_28223          2177096801       2177096802       2.10       0.0160     0.000      0.000      0.0000     0.0000
C_28224          2177096802!      2177096803!      4.60       0.0160     0.000      0.000      0.0000     0.0000
C_28225          2177096802       2177096803       4.60       0.0160     0.000      0.000      0.0000     0.0000
C_28226          2177096803!      2177096804!      29.90      0.0250     0.000      0.000      0.0000     0.0000
C_28227          2177096803       2177096804       29.90      0.0250     0.000      0.000      0.0000     0.0000
C_28228          2177096804!      2177096805!      8.70       0.0250     0.000      0.000      0.0000     0.0000
C_28229          2177096804       2177096805       8.70       0.0250     0.000      0.000      0.0000     0.0000
C_28230          2177096805!      2177097806!      6.90       0.0160     0.000      0.059      0.0000     0.0000
C_28231          2177096805       2177097806       6.90       0.0160     0.000      0.059      0.0000     0.0000
C_28232          2177096901!      2177096902!      25.70      0.0160     0.000      0.244      0.0000     0.0000
C_28233          2177096901       2177096902       25.70      0.0160     0.000      0.244      0.0000     0.0000
C_28234          2177096902!      2177096903!      20.70      0.0160     0.000      0.000      0.0000     0.0000
C_28235          2177096902       2177096903       20.70      0.0160     0.000      0.000      0.0000     0.0000
C_28236          2177096903!      2177096905!      30.10      0.0250     0.000      0.000      0.0000     0.0000
C_28237          2177096903       2177096905       30.10      0.0250     0.000      0.000      0.0000     0.0000
C_28238          2177096904!      2177096903!      19.70      0.0250     0.000      0.000      0.0000     0.0000
C_28240          2177096905!      2177096906!      14.70      0.0250     0.000      0.000      0.0000     0.0000
C_28241          2177096905       2177096906       14.70      0.0250     0.000      0.000      0.0000     0.0000
C_28242          2177096906!      2177096907!      3.40       0.0160     0.000      0.000      0.0000     0.0000
C_28243          2177096906       2177096907       3.40       0.0160     0.000      0.000      0.0000     0.0000
C_28244          2177096907!      2177096801!      5.00       0.0160     0.000      0.000      0.0000     0.0000
C_28245          2177096907       2177096801       5.00       0.0160     0.000      0.000      0.0000     0.0000
C_28246          2177097201       2177096202       30.10      0.0250     0.000      0.000      0.0000     0.0000
C_28247          2177097301       2177097201       29.80      0.0250     0.000      0.000      0.0000     0.0000
C_28248          2177097302       2177097301       30.10      0.0250     0.000      0.000      0.0000     0.0000
C_28249          2177097303       2177097302       30.00      0.0250     0.000      0.000      0.0000     0.0000
C_28250          2177097304       2177097303       29.90      0.0250     0.000      0.000      0.0000     0.0000
C_28251          2177097401       2177097304       29.90      0.0250     0.000      0.000      0.0000     0.0000
C_28252          2177097402       2177097401       30.00      0.0250     0.000      0.000      0.0000     0.0000
C_28253          2177097601       2177097602       12.80      0.0250     0.000      0.000      0.0000     0.0000
C_28254          2177097602       2177097603       15.00      0.0250     0.000      0.000      0.0000     0.0000
C_28255          2177097603       2177097604       5.40       0.0160     0.000      0.000      0.0000     0.0000
C_28256          2177097604       2177097605       25.90      0.0160     0.000      0.000      0.0000     0.0000
C_28257          2177097605       2177097606       30.00      0.0250     0.000      0.000      0.0000     0.0000
C_28258          2177097606       2177097607       7.60       0.0250     0.000      0.000      0.0000     0.0000
C_28259          2177097607       2177098504       40.80      0.0160     0.000      0.000      0.0000     0.0000
C_28260          2177097701       2177097703       39.30      0.0250     0.000      0.000      0.0000     0.0000
C_28261          2177097702       2177097701       19.60      0.0250     0.000      0.000      0.0000     0.0000
C_28262          2177097703       2177097601       29.80      0.0250     0.000      0.000      0.0000     0.0000
C_28263          2177097704       2177097702       30.10      0.0250     0.000      0.000      0.0000     0.0000
C_28265          2177097802       2177097803       29.90      0.0250     0.000      0.000      0.0000     0.0000
C_28266          2177097803       2177097805       16.70      0.0250     0.000      0.000      0.0000     0.0000
C_28267          2177097804       2177097704       30.00      0.0250     0.000      0.000      0.0000     0.0000
C_28268          2177097805       2177097804       13.40      0.0250     0.000      0.000      0.0000     0.0000
C_28269          2177097806!      2177097901!      91.50      0.0160     0.000      0.006      0.0000     0.0000
C_28270          2177097806       2177097901       91.50      0.0160     0.000      0.006      0.0000     0.0000
C_28271          2177097901!      2177098901!      59.20      0.0250     0.000      0.000      0.0000     0.0000
C_28272          2177097901       2177098901       59.20      0.0250     0.000      0.000      0.0000     0.0000
C_28273          2177098401       2177097402       30.40      0.0250     0.000      0.000      0.0000     0.0000
C_28274          2177098402       2177098401       14.40      0.0250     0.000      0.000      0.0000     0.0000
C_28275          2177098403       2177098402       8.30       0.0160     0.000      0.000      0.0000     0.0000
C_28276          2177098404       2177098403       9.90       0.0160     0.000      0.000      0.0000     0.0000
C_28277          2177098405       2177098404       3.10       0.0160     0.000      0.000      0.0000     0.0000
C_28278          2177098406       2177098402       39.20      0.0250     0.000      0.222      0.0000     0.0000
C_28279          2177098407       2177098406       25.00      0.0250     0.000      0.000      0.0000     0.0000
C_28280          2177098501       2177098405       7.10       0.0160     0.000      0.000      0.0000     0.0000
C_28281          2177098502       2177098501       17.30      0.0250     0.000      0.000      0.0000     0.0000
C_28282          2177098503       2177098502       30.10      0.0250     0.000      0.000      0.0000     0.0000
C_28283          2177098504       2177098506       11.60      0.0160     0.000      0.000      0.0000     0.0000
C_28284          2177098505       2177098503       7.80       0.0250     0.000      0.000      0.0000     0.0000
C_28285          2177098506       2177098505       22.10      0.0250     0.000      0.000      0.0000     0.0000
C_28286          2177098507       2177098505       35.40      0.0250     0.000      0.812      0.0000     0.0000
C_28287          2177098508       2177098507       8.50       0.0250     0.000      0.000      0.0000     0.0000
C_28288          2177098509       2177098508       10.70      0.0160     0.000      0.000      0.0000     0.0000
C_28289          2177098601       2177098509       12.60      0.0250     0.000      0.000      0.0000     0.0000
C_28290          2177098602       2177098601       31.60      0.0250     0.000      0.000      0.0000     0.0000
C_28291          2177098603       2177098602       26.70      0.0250     0.000      0.000      0.0000     0.0000
C_28292          2177098801       2177097805       37.60      0.0250     0.000      0.380      0.0000     0.0000
C_28293          2177098802       2177098801       30.60      0.0250     0.000      0.000      0.0000     0.0000
C_28294          2177098803       2177098802       30.30      0.0250     0.000      0.000      0.0000     0.0000
C_28295          2177098901!      2178100001!      217.80     0.0250     0.000      0.000      0.0000     0.0000
C_28296          2177098901       2178100001       217.80     0.0250     0.000      0.000      0.0000     0.0000
C_28297          2177098902       2177098803       21.20      0.0250     0.000      0.000      0.0000     0.0000
C_28298          2177099401       2177098407       30.10      0.0250     0.000      0.000      0.0000     0.0000
C_28299          2177099402       2177099401       29.90      0.0250     0.000      0.000      0.0000     0.0000
C_28300          2177099403       2177099402       30.00      0.0250     0.000      0.000      0.0000     0.0000
C_28301          2177099404       2177099403       30.50      0.0250     0.000      0.000      0.0000     0.0000
C_28302          2177099601       2177098603       30.50      0.0250     0.000      0.000      0.0000     0.0000
C_28303          2177099602       2177099601       29.60      0.0250     0.000      0.000      0.0000     0.0000
C_28304          2177099603       2177099602       30.20      0.0250     0.000      0.000      0.0000     0.0000
C_28305          2177100301       2177100302       17.30      0.0250     0.000      0.000      0.0000     0.0000
C_28306          2177100302       2177100303       28.50      0.0250     0.000      0.000      0.0000     0.0000
C_28307          2177100303       2177100304       8.80       0.0160     0.033      0.000      0.0000     0.0000
C_28308          2177100304       2177100305       30.70      0.0250     0.000      0.000      0.0000     0.0000
C_28309          2177100305       2177101201       29.90      0.0250     0.000      0.000      0.0000     0.0000
C_28310          2177100701       2176109705       29.70      0.0250     0.000      0.000      0.0000     0.0000
C_28311          2177100702       2177100701       30.20      0.0250     0.000      0.000      0.0000     0.0000
C_28312          2177100703       2177100702       29.50      0.0250     0.000      0.000      0.0000     0.0000
C_28313          2177100704       2177100703       28.00      0.0250     0.000      0.000      0.0000     0.0000
C_28314          2177101201       2177101202       30.00      0.0250     0.000      0.000      0.0000     0.0000
C_28315          2177101202       2177101203       30.00      0.0250     0.000      0.000      0.0000     0.0000
C_28316          2177101203       2177101204       30.10      0.0250     0.000      0.000      0.0000     0.0000
C_28317          2177101204       2177102201       29.80      0.0250     0.000      0.000      0.0000     0.0000
C_28318          2177101701       2177100704       30.00      0.0250     0.000      0.000      0.0000     0.0000
C_28319          2177101702       2177101701       5.20       0.0160     0.000      0.000      0.0000     0.0000
C_28320          2177101703       2177101702       13.50      0.0160     0.000      0.000      0.0000     0.0000
C_28321          2177101704       2177101703       10.50      0.0160     0.000      0.000      0.0000     0.0000
C_28322          2177101705       2177101704       29.90      0.0160     0.000      0.000      0.0000     0.0000
C_28323          2177102201       2177102202       29.60      0.0250     0.000      0.000      0.0000     0.0000
C_28324          2177102202       2177102203       29.80      0.0160     0.000      0.000      0.0000     0.0000
C_28325          2177102203       2177102204       29.90      0.0250     0.000      0.000      0.0000     0.0000
C_28326          2177102204       2177103201       27.40      0.0250     0.000      0.000      0.0000     0.0000
C_28327          2177102205       2177102203       34.70      0.0160     0.000      0.000      0.0000     0.0000
C_28328          2177102301       2177102302       25.30      0.0250     0.000      0.000      0.0000     0.0000
C_28329          2177102302       2177102303       26.50      0.0250     0.000      0.000      0.0000     0.0000
C_28330          2177102303       2177102304       16.00      0.0250     0.000      0.000      0.0000     0.0000
C_28331          2177102304       2177102205       17.60      0.0250     0.000      0.000      0.0000     0.0000
C_28332          2177102701       2177101705       30.00      0.0160     0.000      0.000      0.0000     0.0000
C_28333          2177102702       2177102701       30.00      0.0160     0.000      0.000      0.0000     0.0000
C_28334          2177102703       2177102702       13.10      0.0160     0.000      0.000      0.0000     0.0000
C_28335          2177102704       2177102703       9.30       0.0160     0.000      0.000      0.0000     0.0000
C_28336          2177103001       2177104001       29.90      0.0250     0.000      0.000      0.0000     0.0000
C_28337          2177103101       2177103102       29.90      0.0250     0.000      0.000      0.0000     0.0000
C_28338          2177103102       2177103103       29.50      0.0250     0.000      0.000      0.0000     0.0000
C_28339          2177103103       2177103104       30.20      0.0250     0.000      0.000      0.0000     0.0000
C_28340          2177103104       2177103105       7.80       0.0250     0.000      0.000      0.0000     0.0000
C_28341          2177103105       2177103106       11.80      0.0160     0.000      0.000      0.0000     0.0000
C_28342          2177103106       2177103001       10.30      0.0250     0.000      0.038      0.0000     0.0000
C_28343          2177103201       2177103202       9.50       0.0250     0.000      0.000      0.0000     0.0000
C_28344          2177103202       2177103203       15.20      0.0160     0.000      0.000      0.0000     0.0000
C_28345          2177103203       2177103101       8.30       0.0250     0.000      0.047      0.0000     0.0000
C_28347          2177103301       2177103302       50.80      0.0250     0.000      0.000      0.0000     0.0000
C_28349          2177103302       2177104301       50.90      0.0250     0.000      0.000      0.0000     0.0000
C_28350          2177104001       2177104002       17.60      0.0250     0.000      0.000      0.0000     0.0000
C_28351          2177104002       2177104003       12.60      0.0250     0.000      0.000      0.0000     0.0000
C_28352          2177104003       2177104004       13.70      0.0250     0.000      0.000      0.0000     0.0000
C_28353          2177104004       2177104006       11.20      0.0160     0.000      0.000      0.0000     0.0000
C_28354          2177104005       2177104002       34.20      0.0250     0.000      0.000      0.0000     0.0000
C_28355          2177104006       2177104007       4.90       0.0250     0.000      0.024      0.0000     0.0000
C_28356          2177104007       2177104008       25.40      0.0250     0.000      0.000      0.0000     0.0000
C_28357          2177104008       2177104009       3.90       0.0160     0.000      0.000      0.0000     0.0000
C_28358          2177104009       2177104010       1.70       0.0250     0.000      0.000      0.0000     0.0000
C_28359          2177104010       2177094905       24.70      0.0250     0.009      0.000      0.0000     0.0000
C_28361          2177104101       2177104005       30.00      0.0160     0.000      0.000      0.0000     0.0000
C_28362          2177104102       2177104103       14.90      0.0250     0.000      0.000      0.0000     0.0000
C_28363          2177104103       2177104101       29.20      0.0250     0.000      0.000      0.0000     0.0000
C_28364          2177104104       2177104102       14.70      0.0250     0.000      0.000      0.0000     0.0000
C_28365          2177104105       2177104104       29.40      0.0250     0.000      0.000      0.0000     0.0000
C_28366          2177104201       2177104203       28.70      0.0250     0.000      0.000      0.0000     0.0000
C_28368          2177104203       2177104105       29.30      0.0250     0.000      0.000      0.0000     0.0000
C_28371          2177104301!      2177104302!      42.90      0.0250     0.000      0.000      0.0000     0.0000
C_28372          2177104301       2177104302       42.90      0.0250     0.000      0.000      0.0000     0.0000
C_28373          2177104302!      2177105319!      31.60      0.0250     0.000      0.000      0.0000     0.0000
C_28374          2177104302       2177105319       31.60      0.0250     0.000      0.000      0.0000     0.0000
C_28381          2177105006!      2177105007!      7.00       0.0160     0.000      0.000      0.0000     0.0000
C_28382          2177105006       2177105007       7.00       0.0160     0.221      0.000      0.0000     0.0000
C_28383          2177105007!      2177105008!      6.20       0.0160     0.000      0.000      0.0000     0.0000
C_28384          2177105007       2177105008       6.20       0.0160     0.000      0.000      0.0000     0.0000
C_28385          2177105008!      2177105009!      3.20       0.0160     0.000      0.000      0.0000     0.0000
C_28386          2177105008       2177105009       3.20       0.0160     0.000      0.000      0.0000     0.0000
C_28387          2177105009!      2177105010!      2.50       0.0160     0.000      0.000      0.0000     0.0000
C_28388          2177105009       2177105010       2.50       0.0160     0.000      0.000      0.0000     0.0000
C_28389          2177105010!      2177105011!      2.50       0.0160     0.000      0.000      0.0000     0.0000
C_28390          2177105010       2177105011       2.50       0.0160     0.000      0.000      0.0000     0.0000
C_28391          2177105011!      2177105012!      5.10       0.0160     0.000      0.000      0.0000     0.0000
C_28392          2177105011       2177105012       5.10       0.0160     0.000      0.000      0.0000     0.0000
C_28393          2177105012!      2177095901!      9.30       0.0160     0.000      0.000      0.0000     0.0000
C_28394          2177105012       2177095901       9.30       0.0160     0.000      0.000      0.0000     0.0000
C_28395          2177105013!      2177105014!      30.00      0.0250     0.000      0.000      0.0000     0.0000
C_28396          2177105013       2177105014       30.00      0.0250     0.000      0.000      0.0000     0.0000
C_28397          2177105014!      2177105015!      18.00      0.0250     0.000      0.000      0.0000     0.0000
C_28398          2177105014       2177105015       18.00      0.0250     0.000      0.000      0.0000     0.0000
C_28399          2177105015!      2177105017!      9.30       0.0250     0.240      0.000      0.0000     0.0000
C_28400          2177105015!      2177105016!      9.00       0.0250     0.000      0.000      0.0000     0.0000
C_28401          2177105015       2177105017       9.30       0.0250     0.000      0.000      0.0000     0.0000
C_28402          2177105015       2177105016       9.00       0.0250     0.000      0.000      0.0000     0.0000
C_28403          2177105017!      2177105006!      11.40      0.0250     0.000      0.000      0.0000     0.0000
C_28404          2177105017       2177105006       11.40      0.0250     0.000      0.000      0.0000     0.0000
C_28405          2177105101!      2177105102!      30.00      0.0250     0.000      0.000      0.0000     0.0000
C_28406          2177105101       2177105102       30.00      0.0250     0.000      0.000      0.0000     0.0000
C_28407          2177105102!      2177105103!      30.10      0.0250     0.000      0.000      0.0000     0.0000
C_28408          2177105102       2177105103       30.10      0.0250     0.000      0.000      0.0000     0.0000
C_28409          2177105103!      2177105013!      29.90      0.0250     0.000      0.000      0.0000     0.0000
C_28410          2177105103       2177105013       29.90      0.0250     0.000      0.000      0.0000     0.0000
C_28412          2177105202!      2177105203!      30.10      0.0250     0.000      0.000      0.0000     0.0000
C_28413          2177105202       2177105203       30.10      0.0250     0.000      0.000      0.0000     0.0000
C_28414          2177105203!      2177105101!      29.80      0.0250     0.000      0.000      0.0000     0.0000
C_28415          2177105203       2177105101       29.80      0.0250     0.000      0.000      0.0000     0.0000
C_28416          2177105204!      2177105202!      30.10      0.0250     0.000      0.000      0.0000     0.0000
C_28417          2177105204       2177105202       30.10      0.0250     0.000      0.000      0.0000     0.0000
C_28420          2177105303!      2177105308!      8.70       0.0250     0.000      0.000      0.0000     0.0000
C_28422          2177105304!      2177105320!      7.50       0.0250     0.000      0.000      0.0000     0.0000
C_28424          2177105305!      2177105310!      7.40       0.0250     0.000      0.000      0.0000     0.0000
C_28425          2177105305       2177105310       7.40       0.0250     0.000      0.000      0.0000     0.0000
C_28426          2177105306!      2177105305!      8.10       0.0250     0.000      0.000      0.0000     0.0000
C_28427          2177105306       2177105305       8.10       0.0250     0.000      0.000      0.0000     0.0000
C_28428          2177105307!      2177105312!      9.90       0.0250     0.000      0.000      0.0000     0.0000
C_28430          2177105308!      2177105307!      6.70       0.0250     0.000      0.000      0.0000     0.0000
C_28432          2177105309!      2177105304!      7.60       0.0250     0.000      0.000      0.0000     0.0000
C_28434          2177105310!      2177105311!      8.80       0.0250     0.000      0.000      0.0000     0.0000
C_28435          2177105310       2177105311       8.80       0.0250     0.000      0.000      0.0000     0.0000
C_28436          2177105311!      2177105313!      3.50       0.0160     0.000      0.000      0.0000     0.0000
C_28437          2177105311       2177105313       3.50       0.0160     0.000      0.000      0.0000     0.0000
C_28438          2177105312!      2177105315!      11.40      0.0250     0.000      0.000      0.0000     0.0000
C_28440          2177105313!      2177105314!      17.50      0.0250     0.000      0.000      0.0000     0.0000
C_28441          2177105313       2177105314       17.50      0.0250     0.000      0.000      0.0000     0.0000
C_28442          2177105314!      2177105204!      30.00      0.0250     0.000      0.000      0.0000     0.0000
C_28443          2177105314       2177105204       30.00      0.0250     0.000      0.000      0.0000     0.0000
C_28444          2177105315!      2177105310!      18.00      0.0250     0.000      0.000      0.0000     0.0000
C_28445          2177105315       2177105310       18.00      0.0250     0.000      0.000      0.0000     0.0000
C_28446          2177105316!      2177105315!      10.50      0.0250     0.000      0.000      0.0000     0.0000
C_28447          2177105316       2177105315       10.50      0.0250     0.000      0.000      0.0000     0.0000
C_28448          2177105317!      2177105316!      30.60      0.0250     0.000      0.000      0.0000     0.0000
C_28449          2177105317       2177105316       30.60      0.0250     0.000      0.000      0.0000     0.0000
C_28450          2177105318!      2177105317!      29.90      0.0250     0.000      0.000      0.0000     0.0000
C_28451          2177105318       2177105317       29.90      0.0250     0.000      0.000      0.0000     0.0000
C_28452          2177105319!      2177105306!      7.70       0.0250     0.000      0.000      0.0000     0.0000
C_28453          2177105319       2177105306       7.70       0.0250     0.000      0.000      0.0000     0.0000
C_28454          2177105320!      2177105303!      9.10       0.0250     0.000      0.000      0.0000     0.0000
C_28456          2177105401!      2177105309!      12.70      0.0250     0.000      0.000      0.0000     0.0000
C_28458          2177105402!      2177105401!      14.70      0.0250     0.000      0.000      0.0000     0.0000
C_28460          2177105403!      2177105402!      11.10      0.0250     0.000      0.000      0.0000     0.0000
C_28462          2177105404!      2177105403!      16.30      0.0250     0.000      0.000      0.0000     0.0000
C_28464          2177105405!      2177105404!      16.90      0.0250     0.000      0.000      0.0000     0.0000
C_28466          2177105406!      2177105405!      22.80      0.0250     0.000      0.000      0.0000     0.0000
C_28468          2177105407!      2177105408!      1.80       0.0250     0.000      0.000      0.0000     0.0000
C_28470          2177105408!      2177105406!      16.90      0.0250     0.000      0.000      0.0000     0.0000
C_28472          2177105501!      2177105502!      22.60      0.0250     0.000      0.000      0.0000     0.0000
C_28474          2177105502!      2177105407!      20.80      0.0250     0.000      0.000      0.0000     0.0000
C_28476          2177106401!      2177105318!      28.20      0.0250     0.000      0.000      0.0000     0.0000
C_28477          2177106401       2177105318       28.20      0.0250     0.000      0.000      0.0000     0.0000
C_28478          2177106402!      2177106401!      28.70      0.0250     0.000      0.000      0.0000     0.0000
C_28479          2177106402       2177106401       28.70      0.0250     0.000      0.000      0.0000     0.0000
C_28480          2177106403!      2177106402!      29.90      0.0250     0.000      0.000      0.0000     0.0000
C_28481          2177106403       2177106402       29.90      0.0250     0.000      0.000      0.0000     0.0000
C_28482          2177106404!      2177106403!      30.10      0.0250     0.000      0.000      0.0000     0.0000
C_28483          2177106404       2177106403       30.10      0.0250     0.000      0.000      0.0000     0.0000
C_28484          2177107401!      2177106404!      30.00      0.0250     0.000      0.000      0.0000     0.0000
C_28485          2177107401       2177106404       30.00      0.0250     0.000      0.000      0.0000     0.0000
C_28486          2177107501!      2177107401!      30.00      0.0250     0.000      0.000      0.0000     0.0000
C_28487          2177107501       2177107401       30.00      0.0250     0.000      0.000      0.0000     0.0000
C_28488          2177107502!      2177107501!      30.00      0.0250     0.000      0.000      0.0000     0.0000
C_28489          2177107502       2177107501       30.00      0.0250     0.000      0.000      0.0000     0.0000
C_28490          2177107503!      2177107502!      30.10      0.0250     0.000      0.000      0.0000     0.0000
C_28491          2177107503       2177107502       30.10      0.0250     0.000      0.000      0.0000     0.0000
C_28492          2177108501!      2177107503!      29.90      0.0250     0.000      0.000      0.0000     0.0000
C_28493          2177108501       2177107503       29.90      0.0250     0.000      0.000      0.0000     0.0000
C_28494          2177108502!      2177108501!      29.80      0.0250     0.000      0.000      0.0000     0.0000
C_28495          2177108502       2177108501       29.80      0.0250     0.000      0.000      0.0000     0.0000
C_28496          2177108503!      2177108502!      30.30      0.0250     0.000      0.000      0.0000     0.0000
C_28497          2177108503       2177108502       30.30      0.0250     0.000      0.000      0.0000     0.0000
C_28498          2177108601!      2177108503!      29.90      0.0250     0.000      0.000      0.0000     0.0000
C_28499          2177108601       2177108503       29.90      0.0250     0.000      0.000      0.0000     0.0000
C_28500          2177108602!      2177108601!      30.00      0.0250     0.000      0.000      0.0000     0.0000
C_28501          2177108602       2177108601       30.00      0.0250     0.000      0.000      0.0000     0.0000
C_28502          2177109601!      2177108602!      29.90      0.0250     0.000      0.000      0.0000     0.0000
C_28503          2177109601       2177108602       29.90      0.0250     0.000      0.000      0.0000     0.0000
C_28504          2177109602!      2177109601!      30.10      0.0250     0.000      0.000      0.0000     0.0000
C_28505          2177109602       2177109601       30.10      0.0250     0.000      0.000      0.0000     0.0000
C_28506          2177109603!      2177109602!      29.90      0.0250     0.000      0.000      0.0000     0.0000
C_28507          2177109603       2177109602       29.90      0.0250     0.000      0.000      0.0000     0.0000
C_28508          2177109701!      2177109603!      30.00      0.0250     0.000      0.000      0.0000     0.0000
C_28509          2177109701       2177109603       30.00      0.0250     0.000      0.000      0.0000     0.0000
C_28510          2177109801!      2177109802!      9.40       0.0250     0.000      0.000      0.0000     0.0000
C_28511          2177109801       2177109802       9.40       0.0250     0.000      0.000      0.0000     0.0000
C_28512          2177109802!      2177109803!      39.20      0.0250     0.000      0.000      0.0000     0.0000
C_28513          2177109802       2177109803       39.20      0.0250     0.000      0.000      0.0000     0.0000
C_28514          2177109803!      2177109804!      10.00      0.0250     0.000      0.000      0.0000     0.0000
C_28515          2177109803       2177109804       10.00      0.0250     0.000      0.000      0.0000     0.0000
C_28516          2177109804!      2178100801!      39.30      0.0250     0.000      0.000      0.0000     0.0000
C_28517          2177109804       2178100801       39.30      0.0250     0.000      0.000      0.0000     0.0000
C_28518          2177109901!      2177109902!      48.60      0.0250     0.000      0.000      0.0000     0.0000
C_28519          2177109901       2177109902       48.60      0.0250     0.000      0.000      0.0000     0.0000
C_28520          2177109902!      2177109801!      47.60      0.0250     0.000      0.000      0.0000     0.0000
C_28521          2177109902       2177109801       47.60      0.0250     0.000      0.000      0.0000     0.0000
C_28522          2177110001       2176119003       28.60      0.0160     0.000      0.000      0.0000     0.0000
C_28523          2177110002       2176119003       30.10      0.0160     0.000      0.000      0.0000     0.0000
C_28524          2177110003       2177110001       29.90      0.0160     0.000      0.000      0.0000     0.0000
C_28525          2177110101       2177110003       30.20      0.0160     0.000      0.000      0.0000     0.0000
C_28527          2177110102       2176119102       89.40      0.0160     0.000      0.000      0.0000     0.0000
C_28528          2177110103       2177110102       32.90      0.0160     0.000      0.587      0.0000     0.0000
C_28529          2177110104       2177110002       148.00     0.0160     0.461      0.000      0.0000     0.0000
C_28531          2177110501       2176118503       139.10     0.0160     0.000      0.000      0.0000     0.0000
C_28532          2177110601       2177110501       76.50      0.0160     0.000      0.000      0.0000     0.0000
C_28533          2177110602       2177110601       8.50       0.0160     0.000      0.000      0.0000     0.0000
C_28534          2177111101       2177110104       24.00      0.0160     0.000      0.461      0.0000     0.0000
C_28535          2177111201       2177110103       30.20      0.0160     0.000      0.000      0.0000     0.0000
C_28536          2177111202       2177111201       30.10      0.0160     0.000      0.000      0.0000     0.0000
C_28537          2177111203       2177111202       30.00      0.0160     0.000      0.000      0.0000     0.0000
C_28538          2177111301       2177111203       29.80      0.0160     0.000      0.000      0.0000     0.0000
C_28539          2177111302       2177111301       30.00      0.0160     0.000      0.000      0.0000     0.0000
C_28540          2177111303       2177111302       30.00      0.0160     0.000      0.000      0.0000     0.0000
C_28541          2177111304       2177111303       29.90      0.0160     0.000      0.000      0.0000     0.0000
C_28542          2177112301       2177111101       240.90     0.0160     0.000      0.000      0.0000     0.0000
C_28543          2177112401       2177111304       30.00      0.0160     0.000      0.000      0.0000     0.0000
C_28544          2177112402       2177112401       30.00      0.0160     0.000      0.000      0.0000     0.0000
C_28545          2177112403       2177112402       29.40      0.0160     0.000      0.000      0.0000     0.0000
C_28546          2177112404       2177112403       29.90      0.0160     0.000      0.000      0.0000     0.0000
C_28547          2177112405       2177112301       81.60      0.0160     0.000      0.000      0.0000     0.0000
C_28548          2177112406       2177112404       26.60      0.0160     0.000      0.000      0.0000     0.0000
C_28549          2177112407       2177112405       22.10      0.0160     0.000      0.000      0.0000     0.0000
C_28550          2177113401       2177112406       33.70      0.0160     0.000      0.000      0.0000     0.0000
C_28551          2177113402       2177113401       29.70      0.0160     0.000      0.000      0.0000     0.0000
C_28552          2177113501       2177112406       56.80      0.0160     0.000      0.000      0.0000     0.0000
C_28554          2177113503       2177113505       29.40      0.0250     0.000      0.000      0.0000     0.0000
C_28555          2177113504       2177113503       30.00      0.0250     0.000      0.000      0.0000     0.0000
C_28556          2177113505       2177113402       29.00      0.0160     0.000      0.000      0.0000     0.0000
C_28558          2177113602       2177110602       283.40     0.0160     0.000      0.000      0.0000     0.0000
C_28559          2177113603       2177113504       28.30      0.0250     0.000      0.000      0.0000     0.0000
C_28560          2177113604       2177113603       7.70       0.0160     0.000      0.000      0.0000     0.0000
C_28561          2177113605       2177113604       35.80      0.0130     0.000      0.629      0.0000     0.0000
C_28562          2177113701       2177113605       53.30      0.0130     0.000      0.000      0.0000     0.0000
C_28563          2177113702       2177113602       137.90     0.0160     0.000      0.000      0.0000     0.0000
C_28564          2177113703       2177113701       65.20      0.0130     0.000      0.000      0.0000     0.0000
C_28565          2177113801       2177113702       75.90      0.0160     0.000      0.000      0.0000     0.0000
C_28566          2177113802       2177113703       61.40      0.0130     0.000      0.000      0.0000     0.0000
C_28567          2177113803       2177113801       67.90      0.0160     0.000      0.000      0.0000     0.0000
C_28568          2177113804       2177113802       60.20      0.0130     0.000      0.000      0.0000     0.0000
C_28569          2177114501       2177112407       161.00     0.0160     0.000      0.000      0.0000     0.0000
C_28570          2177114502       2177113402       115.00     0.0160     0.000      0.000      0.0000     0.0000
C_28571          2177114503       2177114501       21.10      0.0160     0.000      0.000      0.0000     0.0000
C_28573          2177115501       2177115502       23.10      0.0160     0.000      0.000      0.0000     0.0000
C_28574          2177115502       2177114503       133.20     0.0160     0.000      0.000      0.0000     0.0000
C_28576          2177116201       2177116202       76.00      0.0250     0.000      0.000      0.0000     0.0000
C_28577          2177116202!      2177117101!      72.50      0.0250     0.000      0.000      0.0000     0.0000
C_28578          2177116202       2177117101       72.50      0.0250     0.000      0.000      0.0000     0.0000
C_28581          2177116502       2177116503       25.50      0.0130     0.208      0.000      0.0000     0.0000
C_28582          2177116503       2177115502       50.50      0.0160     0.000      0.000      0.0000     0.0000
C_28583          2177116504       2177116502       10.10      0.0160     0.000      0.208      0.0000     0.0000
C_28584          2177116701       2177116502       119.30     0.0160     0.000      0.000      0.0000     0.0000
C_28585          2177116702       2177116504       116.70     0.0160     0.000      0.000      0.0000     0.0000
C_28586          2177117101!      2177118101!      66.30      0.0250     0.000      0.000      0.0000     0.0000
C_28587          2177117101       2177118101       66.30      0.0250     0.000      0.000      0.0000     0.0000
C_28588          2177117801       2177116701       115.60     0.0160     0.000      0.000      0.0000     0.0000
C_28589          2177117802       2177117801       6.20       0.0250     0.000      0.000      0.0000     0.0000
C_28591          2177117803       2177117802       51.90      0.0250     0.000      0.000      0.0000     0.0000
C_28592          2177117804       2177117803       27.80      0.0250     0.000      0.000      0.0000     0.0000
C_28593          2177118001!      2177119001!      68.90      0.0250     0.000      0.000      0.0000     0.0000
C_28594          2177118001       2177119001       68.90      0.0250     0.000      0.000      0.0000     0.0000
C_28595          2177118101!      2177118001!      73.60      0.0250     0.000      0.000      0.0000     0.0000
C_28596          2177118101       2177118001       73.60      0.0250     0.000      0.000      0.0000     0.0000
C_28597          2177118801       2177117804       70.30      0.0250     0.000      0.000      0.0000     0.0000
C_28598          2177119001!      2177119002!      27.50      0.0250     0.000      0.000      0.0000     0.0000
C_28599          2177119001       2177119002       27.50      0.0250     0.000      0.000      0.0000     0.0000
C_28600          2177119002!      2177109901!      53.70      0.0250     0.000      0.000      0.0000     0.0000
C_28601          2177119002       2177109901       53.70      0.0250     0.000      0.000      0.0000     0.0000
C_28602          2177119801       2177118801       129.70     0.0250     0.000      0.000      0.0000     0.0000
C_28603          2177120501       2176129501       39.50      0.0250     0.000      0.000      0.0000     0.0000
C_28604          2177120601       2177120501       33.00      0.0250     0.000      0.000      0.0000     0.0000
C_28605          2177120602       2177120601       46.90      0.0250     0.000      0.000      0.0000     0.0000
C_28606          2177121801       2177120801       30.00      0.0250     0.000      0.000      0.0000     0.0000
C_28607          2177121802       2177121801       30.00      0.0250     0.000      0.000      0.0000     0.0000
C_28608          2177121803       2177121802       59.80      0.0250     0.000      0.000      0.0000     0.0000
C_28609          2177122801       2177121803       30.00      0.0250     0.000      0.000      0.0000     0.0000
C_28610          2177122802       2177122801       30.00      0.0250     0.000      0.000      0.0000     0.0000
C_28611          2177122803       2177122802       30.00      0.0250     0.000      0.000      0.0000     0.0000
C_28612          2177123801       2177122803       30.00      0.0250     0.000      0.000      0.0000     0.0000
C_28613          2177123802       2177123801       23.00      0.0160     0.000      0.000      0.0000     0.0000
C_28614          2177123803       2177123802       17.50      0.0160     0.000      0.000      0.0000     0.0000
C_28615          2177123901       2177123803       20.40      0.0250     0.000      0.000      0.0000     0.0000
C_28616          2177123902       2177123901       29.50      0.0250     0.000      0.000      0.0000     0.0000
C_28617          2177123903       2177123902       28.80      0.0250     0.000      0.000      0.0000     0.0000
C_28618          2177123904       2177123903       29.10      0.0250     0.000      0.000      0.0000     0.0000
C_28619          2177124901       2177123904       36.00      0.0250     0.000      0.000      0.0000     0.0000
C_28620          2177124902       2177124901       18.10      0.0250     0.000      0.000      0.0000     0.0000
C_28621          2177124903       2177124902       18.20      0.0250     0.000      0.000      0.0000     0.0000
C_28622          2177124904       2177124903       34.40      0.0250     0.000      0.000      0.0000     0.0000
C_28623          2177124905       2177124904       29.10      0.0250     0.000      0.000      0.0000     0.0000
C_28624          2177129001       2178110902       48.50      0.0250     0.000      0.000      0.0000     0.0000
C_28625          2177129101       2177129001       86.00      0.0250     0.000      0.000      0.0000     0.0000
C_28627          2177131601       2177131501       67.20      0.0250     0.000      0.000      0.0000     0.0000
C_28629          2177131701       2177133701       137.30     0.0160     0.000      0.000      0.0000     0.0000
C_28632          2177134001       2177134002       26.30      0.0250     0.000      0.000      0.0000     0.0000
C_28633          2177134002       2177124905       40.10      0.0250     0.000      0.000      0.0000     0.0000
C_28634          2177134003       2177134001       31.00      0.0250     0.000      0.000      0.0000     0.0000
C_28635          2177135001       2177134003       30.60      0.0250     0.000      0.000      0.0000     0.0000
C_28636          2177135101       2177135001       33.10      0.0250     0.000      0.000      0.0000     0.0000
C_28637          2177135102       2177135101       26.50      0.0160     0.000      0.000      0.0000     0.0000
C_28638          2177135103       2177135102       29.80      0.0160     0.000      0.000      0.0000     0.0000
C_28639          2177135104       2177135103       30.70      0.0250     0.000      0.000      0.0000     0.0000
C_28640          2177135201       2177135104       29.60      0.0250     0.000      0.000      0.0000     0.0000
C_28641          2177135202       2177135201       11.90      0.0250     0.000      0.000      0.0000     0.0000
C_28642          2177136201       2177135202       16.90      0.0250     0.000      0.000      0.0000     0.0000
C_28643          2177136202       2177136201       17.20      0.0250     0.000      0.000      0.0000     0.0000
C_28644          2177136203       2177136202       13.80      0.0250     0.000      0.000      0.0000     0.0000
C_28645          2177136204       2177136203       13.40      0.0250     0.000      0.000      0.0000     0.0000
C_28646          2177136205       2177136204       16.30      0.0250     0.000      0.000      0.0000     0.0000
C_28647          2177136206       2177136205       28.80      0.0160     0.000      0.000      0.0000     0.0000
C_28648          2177136207       2177136206       5.20       0.0160     0.000      0.000      0.0000     0.0000
C_28649          2177137201       2177136207       25.70      0.0250     0.000      0.000      0.0000     0.0000
C_28650          2177137202       2177137201       9.90       0.0250     0.000      0.000      0.0000     0.0000
C_28651          2177137203       2177137202       21.60      0.0250     0.000      0.000      0.0000     0.0000
C_28652          2177137204       2177137203       18.40      0.0250     0.000      0.000      0.0000     0.0000
C_28653          2177137205       2177137204       12.10      0.0250     0.000      0.000      0.0000     0.0000
C_28654          2177137206       2177137205       24.90      0.0250     0.000      0.000      0.0000     0.0000
C_28655          2177137207       2177137206       10.00      0.0160     0.000      0.000      0.0000     0.0000
C_28656          2177137301       2177137207       113.00     0.0160     0.000      0.473      0.0000     0.0000
C_28657          2177138201       2177137207       28.10      0.0160     0.000      0.000      0.0000     0.0000
C_28658          2177138202       2177138201       29.40      0.0250     0.000      0.000      0.0000     0.0000
C_28659          2177138203       2177138202       30.40      0.0250     0.000      0.000      0.0000     0.0000
C_28660          2177138204       2177138203       12.90      0.0250     0.000      0.000      0.0000     0.0000
C_28661          2177138205       2177138204       8.50       0.0250     0.000      0.000      0.0000     0.0000
C_28662          2177138206       2177138205       7.60       0.0250     0.000      0.000      0.0000     0.0000
C_28663          2177138401       2177137301       108.40     0.0160     0.000      0.000      0.0000     0.0000
C_28664          2177138501       2177138401       97.10      0.0160     0.000      0.000      0.0000     0.0000
C_28666          2177138502       2177138501       55.80      0.0160     0.003      0.000      0.0000     0.0000
C_28668          2177138601       2177138502       28.10      0.0250     0.000      0.404      0.0000     0.0000
C_28669          2177138602       2177138601       13.50      0.0160     0.000      0.000      0.0000     0.0000
C_28670          2177138603       2177138602       6.20       0.0160     0.000      0.000      0.0000     0.0000
C_28671          2177138604       2177138603       10.10      0.0250     0.000      0.000      0.0000     0.0000
C_28672          2177138801       2177138904       56.40      0.0160     0.000      0.000      0.0000     0.0000
C_28673          2177138901       2177147005       56.60      0.0160     0.000      0.000      0.0000     0.0000
C_28674          2177138903       2177138901       41.30      0.0160     0.000      0.015      0.0000     0.0000
C_28675          2177138904       2177138903       27.10      0.0160     0.000      1.700      0.0000     0.0000
C_28676          2177139201       2177138206       25.40      0.0250     0.000      0.000      0.0000     0.0000
C_28677          2177139202       2177139201       4.50       0.0250     0.000      0.000      0.0000     0.0000
C_28678          2177139203       2177139202       12.50      0.0250     0.000      0.000      0.0000     0.0000
C_28679          2177139301       2177139302       13.80      0.0250     0.000      0.000      0.0000     0.0000
C_28680          2177139302       2177139203       18.50      0.0250     0.000      0.000      0.0000     0.0000
C_28681          2177139303       2177139301       17.60      0.0250     0.000      0.000      0.0000     0.0000
C_28682          2177139304       2177139305       16.00      0.0250     0.000      0.000      0.0000     0.0000
C_28683          2177139305       2177139303       17.20      0.0250     0.000      0.000      0.0000     0.0000
C_28684          2177139306       2177139304       11.00      0.0250     0.000      0.000      0.0000     0.0000
C_28685          2177139307       2177139306       18.40      0.0250     0.000      0.000      0.0000     0.0000
C_28686          2177139401       2177139307       29.60      0.0250     0.000      0.000      0.0000     0.0000
C_28687          2177139402       2177139401       30.50      0.0250     0.000      0.000      0.0000     0.0000
C_28689          2177139502       2177139503       28.50      0.0160     0.000      0.000      0.0000     0.0000
C_28690          2177139503       2177139510       26.30      0.0160     0.000      0.197      0.0000     0.0000
C_28691          2177139504       2177139510       30.80      0.0250     0.000      0.197      0.0000     0.0000
C_28692          2177139505       2177139504       17.00      0.0250     0.000      0.000      0.0000     0.0000
C_28693          2177139506       2177139509       8.60       0.0250     0.000      0.000      0.0000     0.0000
C_28694          2177139507       2177139505       11.70      0.0250     0.000      0.000      0.0000     0.0000
C_28695          2177139508       2177139506       11.70      0.0250     0.000      0.000      0.0000     0.0000
C_28696          2177139509       2177139507       8.50       0.0250     0.000      0.000      0.0000     0.0000
C_28697          2177139510       2178130402       30.10      0.0160     0.000      0.000      0.0000     0.0000
C_28698          2177139511       2177139508       15.70      0.0160     0.000      0.000      0.0000     0.0000
C_28699          2177139601       2177138604       21.40      0.0250     0.000      0.000      0.0000     0.0000
C_28700          2177139602       2177139604       12.20      0.0250     0.000      0.000      0.0000     0.0000
C_28701          2177139603       2177139601       8.70       0.0250     0.000      0.000      0.0000     0.0000
C_28702          2177139604       2177139603       6.30       0.0250     0.000      0.000      0.0000     0.0000
C_28703          2177139605       2177139511       5.40       0.0160     0.000      0.000      0.0000     0.0000
C_28704          2177139701       2177139602       10.40      0.0250     0.000      0.000      0.0000     0.0000
C_28705          2177139702       2177139701       8.60       0.0250     0.000      0.000      0.0000     0.0000
C_28706          2177139703       2177139702       19.30      0.0250     0.000      0.000      0.0000     0.0000
C_28707          2177139704       2177139703       17.50      0.0250     0.000      0.000      0.0000     0.0000
C_28708          2177139705       2177139704       12.80      0.0250     0.000      0.000      0.0000     0.0000
C_28709          2177139706       2177139705       21.40      0.0160     0.000      0.000      0.0000     0.0000
C_28710          2177139708       2177139706       22.10      0.0160     0.000      0.000      0.0000     0.0000
C_28719          2177142601       2177143401       198.40     0.0160     0.000      0.000      0.0000     0.0000
C_28721          2177143401       2177145501       171.70     0.0160     0.000      0.000      0.0000     0.0000
C_28722          2177143801       2177142601       233.10     0.0160     0.000      0.000      0.0000     0.0000
C_28724          2177145101       2177146201       81.50      0.0160     0.000      0.000      0.0000     0.0000
C_28725          2177145201       2177145101       25.10      0.0160     0.000      0.000      0.0000     0.0000
C_28726          2177147001       2177146002       46.80      0.0160     0.000      0.000      0.0000     0.0000
C_28727          2177147003       2177147001       50.90      0.0160     0.000      0.000      0.0000     0.0000
C_28728          2177147005       2177147003       28.10      0.0160     0.000      0.000      0.0000     0.0000
C_28737          2177155201       2177155202       40.10      0.0160     0.000      0.000      0.0000     0.0000
C_28738          2177155401       2177155201       167.80     0.0160     0.000      0.000      0.0000     0.0000
C_28739          2177155501       2177155401       88.90      0.0160     0.000      0.000      0.0000     0.0000
C_28740          2177155601       2177155501       116.70     0.0160     0.000      0.000      0.0000     0.0000
C_28743          2177156901       2177157901       52.90      0.0160     0.000      0.000      0.0000     0.0000
C_28744          2177157701       2177157801       102.30     0.0160     0.000      0.000      0.0000     0.0000
C_28751          2177163301       2177164301       72.80      0.0160     0.000      0.000      0.0000     0.0000
C_28752          2177164101       2177165201       143.50     0.0160     0.000      0.000      0.0000     0.0000
C_29106          2178090401       2177099404       29.50      0.0250     0.000      0.000      0.0000     0.0000
C_29107          2178090402       2178090401       30.30      0.0250     0.000      0.000      0.0000     0.0000
C_29108          2178090601       2177099603       29.50      0.0250     0.000      0.000      0.0000     0.0000
C_29109          2178090602       2178090601       29.80      0.0250     0.000      0.000      0.0000     0.0000
C_29110          2178090603       2178090602       30.00      0.0250     0.000      0.000      0.0000     0.0000
C_29117          2178091403       2178091501       30.10      0.0250     0.000      0.000      0.0000     0.0000
C_29118          2178091501       2178091502       30.00      0.0250     0.000      0.000      0.0000     0.0000
C_29119          2178091502       2178091503       29.80      0.0250     0.000      0.000      0.0000     0.0000
C_29120          2178091503       2178092501       30.60      0.0250     0.000      0.000      0.0000     0.0000
C_29121          2178091601       2178090603       30.00      0.0250     0.000      0.000      0.0000     0.0000
C_29122          2178091602       2178091601       29.90      0.0250     0.000      0.000      0.0000     0.0000
C_29123          2178091603       2178091602       30.10      0.0250     0.000      0.000      0.0000     0.0000
C_29128          2178092501       2178092601!      29.70      0.0250     0.000      0.000      0.0000     0.0000
C_29129          2178092601!      2178092602!      29.80      0.0250     0.000      0.000      0.0000     0.0000
C_29131          2178092602!      2178092603!      11.40      0.0250     0.000      0.000      0.0000     0.0000
C_29133          2178092603!      2178092604       48.60      0.0160     0.000      0.000      0.0000     0.0000
C_29135          2178092604       2178092701       32.70      0.0250     0.000      0.000      0.0000     0.0000
C_29136          2178092701       2178092702       4.70       0.0250     0.000      0.000      0.0000     0.0000
C_29137          2178092702       2178093701       9.70       0.0160     0.000      0.000      0.0000     0.0000
C_29150          2178093601       2178093703       30.10      0.0250     0.000      0.000      0.0000     0.0000
C_29151          2178093701       2178093702       11.70      0.0250     0.000      0.000      0.0000     0.0000
C_29152          2178093702       2178093601       32.40      0.0250     0.000      0.000      0.0000     0.0000
C_29153          2178093703       2178093704       29.60      0.0250     0.000      0.000      0.0000     0.0000
C_29154          2178093704       2178093705       30.20      0.0250     0.000      0.000      0.0000     0.0000
C_29155          2178093705       2178094701       29.90      0.0160     0.000      0.000      0.0000     0.0000
C_29166          2178094701       2178094801       30.00      0.0160     0.000      0.000      0.0000     0.0000
C_29167          2178094801       2178094802       30.30      0.0160     0.000      0.000      0.0000     0.0000
C_29168          2178094802       2178094803       29.80      0.0160     0.000      0.000      0.0000     0.0000
C_29169          2178094803       2178094804       30.00      0.0160     0.000      0.000      0.0000     0.0000
C_29170          2178094804       2178094901       30.50      0.0250     0.000      0.000      0.0000     0.0000
C_29171          2178094901       2178095901       30.70      0.0250     0.000      0.000      0.0000     0.0000
C_29179          2178095901       2178095902       28.20      0.0250     0.000      0.000      0.0000     0.0000
C_29181          2178095902       2178095905       76.00      0.0160     0.000      0.000      0.0000     0.0000
C_29184          2178095905       2178097801       119.70     0.0160     0.000      0.000      0.0000     0.0000
C_29190          2178097801       2178098801       126.30     0.0160     0.000      0.000      0.0000     0.0000
C_29196          2178098801       2178099701       196.40     0.0160     0.000      0.000      0.0000     0.0000
C_29200          2178099701       2179090701       81.70      0.0160     0.000      0.000      0.0000     0.0000
C_29201          2178100001!      2178101101!      153.30     0.0250     0.000      0.000      0.0000     0.0000
C_29202          2178100001       2178101101       153.30     0.0250     0.000      0.000      0.0000     0.0000
C_29203          2178100701!      2177109701!      29.90      0.0250     0.000      0.000      0.0000     0.0000
C_29204          2178100701       2177109701       29.90      0.0250     0.000      0.000      0.0000     0.0000
C_29205          2178100702!      2178100704!      39.00      0.0250     0.000      0.378      0.0000     0.0000
C_29206          2178100702       2178100704       39.00      0.0250     0.000      0.378      0.0000     0.0000
C_29207          2178100703!      2178100701!      20.70      0.0250     0.000      0.000      0.0000     0.0000
C_29208          2178100703       2178100701       20.70      0.0250     0.000      0.000      0.0000     0.0000
C_29209          2178100704!      2178100703!      9.90       0.0160     0.000      0.000      0.0000     0.0000
C_29210          2178100704       2178100703       9.90       0.0160     0.000      0.000      0.0000     0.0000
C_29211          2178100705!      2178100704!      9.50       0.0160     0.000      0.363      0.0000     0.0000
C_29212          2178100705       2178100704       9.50       0.0160     0.000      0.363      0.0000     0.0000
C_29213          2178100706!      2178100707!      29.90      0.0160     0.000      0.000      0.0000     0.0000
C_29214          2178100706       2178100707       29.90      0.0160     0.000      0.000      0.0000     0.0000
C_29215          2178100707!      2178100708!      8.80       0.0160     0.000      0.717      0.0000     0.0000
C_29216          2178100707       2178100708       8.80       0.0160     0.000      0.717      0.0000     0.0000
C_29217          2178100708!      2178100705!      10.70      0.0250     0.000      0.000      0.0000     0.0000
C_29218          2178100708       2178100705       10.70      0.0250     0.000      0.000      0.0000     0.0000
C_29219          2178100709!      2178100708!      29.80      0.0250     0.000      0.000      0.0000     0.0000
C_29220          2178100709       2178100708       29.80      0.0250     0.000      0.000      0.0000     0.0000
C_29221          2178100801!      2178100702!      41.10      0.0250     0.000      0.000      0.0000     0.0000
C_29222          2178100801       2178100702       41.10      0.0250     0.000      0.000      0.0000     0.0000
C_29223          2178100802!      2178100706!      30.00      0.0160     0.000      0.000      0.0000     0.0000
C_29224          2178100802       2178100706       30.00      0.0160     0.000      0.000      0.0000     0.0000
C_29225          2178100803!      2178100804!      29.90      0.0160     0.000      0.000      0.0000     0.0000
C_29226          2178100803       2178100804       29.90      0.0160     0.000      0.000      0.0000     0.0000
C_29227          2178100804!      2178100802!      30.00      0.0160     0.000      0.000      0.0000     0.0000
C_29228          2178100804       2178100802       30.00      0.0160     0.000      0.000      0.0000     0.0000
C_29229          2178100901!      2178100803!      30.00      0.0160     0.000      0.000      0.0000     0.0000
C_29230          2178100901       2178100803       30.00      0.0160     0.000      0.000      0.0000     0.0000
C_29231          2178100902!      2178100901!      29.80      0.0160     0.000      0.000      0.0000     0.0000
C_29232          2178100902       2178100901       29.80      0.0160     0.000      0.000      0.0000     0.0000
C_29233          2178100903!      2178100904!      30.00      0.0160     0.000      0.000      0.0000     0.0000
C_29234          2178100903       2178100904       30.00      0.0160     0.000      0.000      0.0000     0.0000
C_29235          2178100904!      2178100902!      30.00      0.0160     0.000      0.000      0.0000     0.0000
C_29236          2178100904       2178100902       30.00      0.0160     0.000      0.000      0.0000     0.0000
C_29237          2178101101!      2178102201!      209.40     0.0250     0.000      0.000      0.0000     0.0000
C_29238          2178101101       2178102201       209.40     0.0250     0.000      0.000      0.0000     0.0000
C_29239          2178101701!      2178100709!      30.20      0.0250     0.000      0.000      0.0000     0.0000
C_29240          2178101701       2178100709       30.20      0.0250     0.000      0.000      0.0000     0.0000
C_29241          2178101801!      2178101701!      29.80      0.0250     0.000      0.000      0.0000     0.0000
C_29242          2178101801       2178101701       29.80      0.0250     0.000      0.000      0.0000     0.0000
C_29243          2178101802!      2178101801!      29.90      0.0250     0.000      0.000      0.0000     0.0000
C_29244          2178101802       2178101801       29.90      0.0250     0.000      0.000      0.0000     0.0000
C_29245          2178101803!      2178101802!      30.10      0.0250     0.000      0.000      0.0000     0.0000
C_29246          2178101803       2178101802       30.10      0.0250     0.000      0.000      0.0000     0.0000
C_29247          2178101804!      2178101803!      30.30      0.0250     0.000      0.000      0.0000     0.0000
C_29248          2178101804       2178101803       30.30      0.0250     0.000      0.000      0.0000     0.0000
C_29249          2178102201!      2178104301!      150.30     0.0250     0.000      0.000      0.0000     0.0000
C_29250          2178102201       2178104301       150.30     0.0250     0.000      0.000      0.0000     0.0000
C_29251          2178102801!      2178101804!      29.60      0.0250     0.000      0.000      0.0000     0.0000
C_29252          2178102801       2178101804       29.60      0.0250     0.000      0.000      0.0000     0.0000
C_29253          2178102901!      2178102801!      30.10      0.0250     0.000      0.000      0.0000     0.0000
C_29254          2178102901       2178102801       30.10      0.0250     0.000      0.000      0.0000     0.0000
C_29255          2178102902!      2178102903!      30.10      0.0250     0.000      0.000      0.0000     0.0000
C_29256          2178102902       2178102903       30.10      0.0250     0.000      0.000      0.0000     0.0000
C_29257          2178102903!      2178102904!      28.60      0.0250     0.000      0.000      0.0000     0.0000
C_29258          2178102903       2178102904       28.60      0.0250     0.000      0.000      0.0000     0.0000
C_29259          2178102904!      2178102901!      27.00      0.0250     0.000      0.000      0.0000     0.0000
C_29260          2178102904       2178102901       27.00      0.0250     0.000      0.000      0.0000     0.0000
C_29261          2178104301!      2178104401!      90.20      0.0250     0.000      0.000      0.0000     0.0000
C_29262          2178104301       2178104401       90.20      0.0250     0.000      0.000      0.0000     0.0000
C_29263          2178104401!      2178105401!      62.40      0.0250     0.000      0.000      0.0000     0.0000
C_29264          2178104401       2178105401       62.40      0.0250     0.000      0.000      0.0000     0.0000
C_29268          2178105101       2178105103       22.70      0.0250     0.053      0.000      0.0000     0.0000
C_29269          2178105102       2178105101       16.10      0.0250     0.000      0.000      0.0000     0.0000
C_29270          2178105103       2178106101       13.70      0.0160     0.000      0.000      0.0000     0.0000
C_29271          2178105104       2178105102       30.00      0.0250     0.000      0.000      0.0000     0.0000
C_29272          2178105301       2178106204       129.50     0.0250     0.000      0.000      0.0000     0.0000
C_29273          2178105401!      2178105301       112.80     0.0160     0.000      0.000      0.0000     0.0000
C_29277          2178106004       2178106005       6.70       0.0250     0.000      0.011      0.0000     0.0000
C_29278          2178106005       2178106006       23.10      0.0250     0.011      0.000      0.0000     0.0000
C_29279          2178106006       2178107101       30.80      0.0250     0.000      0.000      0.0000     0.0000
C_29280          2178106101       2178106102       9.40       0.0160     0.000      0.000      0.0000     0.0000
C_29281          2178106102       2178106103       29.60      0.0160     0.000      0.000      0.0000     0.0000
C_29282          2178106103       2178106004       28.70      0.0160     0.000      0.000      0.0000     0.0000
C_29283          2178106201       2178105104       30.10      0.0250     0.000      0.000      0.0000     0.0000
C_29284          2178106202       2178106201       30.20      0.0250     0.000      0.000      0.0000     0.0000
C_29285          2178106203       2178106202       30.10      0.0250     0.000      0.000      0.0000     0.0000
C_29286          2178106204       2178106203       30.80      0.0250     0.000      0.000      0.0000     0.0000
C_29301          2178107101       2178107102       30.80      0.0250     0.000      0.000      0.0000     0.0000
C_29302          2178107102       2178107103       32.10      0.0250     0.000      0.000      0.0000     0.0000
C_29303          2178107103       2178108101       30.10      0.0250     0.000      0.000      0.0000     0.0000
C_29318          2178108101       2178108102       29.10      0.0250     0.000      0.000      0.0000     0.0000
C_29319          2178108102       2178108103       17.80      0.0250     0.000      0.000      0.0000     0.0000
C_29320          2178108103       2178108104       38.00      0.0250     0.000      0.000      0.0000     0.0000
C_29321          2178108104       2178109001       41.00      0.0250     0.000      0.000      0.0000     0.0000
C_29340          2178109001       2178109002       31.70      0.0250     0.000      0.000      0.0000     0.0000
C_29341          2178109002       2178109101       28.40      0.0250     0.000      0.000      0.0000     0.0000
C_29342          2178109101       2178109102       7.90       0.0250     0.000      0.000      0.0000     0.0000
C_29343          2178109102       2179100101       25.10      0.0250     0.000      0.000      0.0000     0.0000
C_29344          2178109601       2179101601       133.50     0.0160     0.000      0.000      0.0000     0.0000
C_29345          2178109701       2178109601       57.30      0.0160     0.000      0.000      0.0000     0.0000
C_29346          2178110001!      2178100903!      29.60      0.0160     0.000      0.000      0.0000     0.0000
C_29347          2178110001       2178100903       29.60      0.0160     0.000      0.000      0.0000     0.0000
C_29348          2178110002!      2178110001!      29.20      0.0160     0.000      0.000      0.0000     0.0000
C_29349          2178110002       2178110001       29.20      0.0160     0.000      0.000      0.0000     0.0000
C_29350          2178110003!      2178110002!      30.00      0.0160     0.000      0.000      0.0000     0.0000
C_29351          2178110003       2178110002       30.00      0.0160     0.000      0.000      0.0000     0.0000
C_29352          2178110101!      2178110102!      30.00      0.0160     0.000      0.000      0.0000     0.0000
C_29353          2178110101       2178110102       30.00      0.0160     0.000      0.000      0.0000     0.0000
C_29354          2178110102!      2178110103!      29.00      0.0160     0.000      0.000      0.0000     0.0000
C_29355          2178110102       2178110103       29.00      0.0160     0.000      0.000      0.0000     0.0000
C_29356          2178110103!      2178110104!      24.20      0.0160     0.000      0.000      0.0000     0.0000
C_29357          2178110103       2178110104       24.20      0.0160     0.000      0.000      0.0000     0.0000
C_29358          2178110104!      2178110105!      16.30      0.0160     0.000      0.000      0.0000     0.0000
C_29359          2178110104       2178110105       16.30      0.0160     0.000      0.000      0.0000     0.0000
C_29360          2178110105!      2178110003!      19.40      0.0160     0.000      0.000      0.0000     0.0000
C_29361          2178110105       2178110003       19.40      0.0160     0.000      0.000      0.0000     0.0000
C_29362          2178110201!      2178110202!      31.10      0.0160     0.000      0.000      0.0000     0.0000
C_29363          2178110201       2178110202       31.10      0.0160     0.000      0.000      0.0000     0.0000
C_29364          2178110202!      2178110204!      29.80      0.0160     0.000      0.000      0.0000     0.0000
C_29365          2178110202       2178110204       29.80      0.0160     0.000      0.000      0.0000     0.0000
C_29366          2178110203!      2178110101!      29.00      0.0160     0.000      0.000      0.0000     0.0000
C_29367          2178110203       2178110101       29.00      0.0160     0.000      0.000      0.0000     0.0000
C_29368          2178110204!      2178110203!      34.70      0.0160     0.000      0.000      0.0000     0.0000
C_29369          2178110204       2178110203       34.70      0.0160     0.000      0.000      0.0000     0.0000
C_29370          2178110301!      2178110201!      37.20      0.0160     0.000      0.020      0.0000     0.0000
C_29371          2178110301       2178110201       37.20      0.0160     0.000      0.020      0.0000     0.0000
C_29372          2178110302!      2178110301!      31.20      0.0160     0.000      0.000      0.0000     0.0000
C_29373          2178110302       2178110301       31.20      0.0160     0.000      0.000      0.0000     0.0000
C_29374          2178110303!      2178110302!      31.70      0.0160     0.000      0.000      0.0000     0.0000
C_29375          2178110303       2178110302       31.70      0.0160     0.000      0.000      0.0000     0.0000
C_29376          2178110304!      2178111302!      56.20      0.0250     0.000      0.000      0.0000     0.0000
C_29377          2178110304       2178111302       56.20      0.0250     0.000      0.000      0.0000     0.0000
C_29378          2178110401!      2178110303!      29.80      0.0160     0.000      0.032      0.0000     0.0000
C_29379          2178110401       2178110303       29.80      0.0160     0.000      0.032      0.0000     0.0000
C_29380          2178110402!      2178110401!      30.00      0.0160     0.000      0.000      0.0000     0.0000
C_29381          2178110402       2178110401       30.00      0.0160     0.000      0.000      0.0000     0.0000
C_29382          2178110403!      2178110402!      30.00      0.0160     0.000      0.000      0.0000     0.0000
C_29383          2178110403       2178110402       30.00      0.0160     0.000      0.000      0.0000     0.0000
C_29384          2178110501!      2178110403!      28.80      0.0160     0.000      0.000      0.0000     0.0000
C_29385          2178110501       2178110403       28.80      0.0160     0.000      0.000      0.0000     0.0000
C_29386          2178110502!      2178110501!      29.80      0.0160     0.062      0.000      0.0000     0.0000
C_29387          2178110502       2178110501       29.80      0.0160     0.062      0.000      0.0000     0.0000
C_29388          2178110801       2177119801       39.70      0.0250     0.000      0.000      0.0000     0.0000
C_29389          2178110901       2178110801       39.90      0.0250     0.000      0.000      0.0000     0.0000
C_29390          2178110902       2178110903       40.80      0.0250     0.000      0.000      0.0000     0.0000
C_29391          2178110903       2178110901       46.00      0.0250     0.000      0.000      0.0000     0.0000
C_29392          2178111101!      2178111103!      27.30      0.0250     0.000      0.000      0.0000     0.0000
C_29393          2178111101       2178111103       27.30      0.0250     0.000      0.000      0.0000     0.0000
C_29394          2178111102!      2178111101!      12.40      0.0250     0.000      0.000      0.0000     0.0000
C_29395          2178111102       2178111101       12.40      0.0250     0.000      0.000      0.0000     0.0000
C_29396          2178111103!      2178112102!      21.90      0.0250     0.000      0.000      0.0000     0.0000
C_29397          2178111103       2178112102       21.90      0.0250     0.000      0.000      0.0000     0.0000
C_29398          2178111201!      2178111102!      45.80      0.0250     0.000      0.000      0.0000     0.0000
C_29399          2178111201       2178111102       45.80      0.0250     0.000      0.000      0.0000     0.0000
C_29400          2178111301!      2178110304!      76.20      0.0250     0.000      0.000      0.0000     0.0000
C_29401          2178111301       2178110304       76.20      0.0250     0.000      0.000      0.0000     0.0000
C_29402          2178111302!      2178111303!      16.20      0.0250     0.000      0.000      0.0000     0.0000
C_29403          2178111302       2178111303       16.20      0.0250     0.000      0.000      0.0000     0.0000
C_29404          2178111303!      2178111201!      89.90      0.0250     0.000      0.000      0.0000     0.0000
C_29405          2178111303       2178111201       89.90      0.0250     0.000      0.000      0.0000     0.0000
C_29406          2178111501!      2178110502!      30.00      0.0160     0.000      0.000      0.0000     0.0000
C_29407          2178111501       2178110502       30.00      0.0160     0.000      0.000      0.0000     0.0000
C_29408          2178111502!      2178111501!      30.10      0.0160     0.000      0.000      0.0000     0.0000
C_29409          2178111502       2178111501       30.10      0.0160     0.000      0.000      0.0000     0.0000
C_29410          2178111503!      2178111502!      29.90      0.0160     0.000      0.000      0.0000     0.0000
C_29411          2178111503       2178111502       29.90      0.0160     0.000      0.000      0.0000     0.0000
C_29412          2178111504!      2178111503!      30.00      0.0250     0.000      0.000      0.0000     0.0000
C_29413          2178111504       2178111503       30.00      0.0250     0.000      0.000      0.0000     0.0000
C_29414          2178112001!      2178112002!      30.80      0.0250     0.000      0.000      0.0000     0.0000
C_29415          2178112001       2178112002       30.80      0.0250     0.000      0.000      0.0000     0.0000
C_29416          2178112002!      2178112003!      29.80      0.0250     0.000      0.000      0.0000     0.0000
C_29417          2178112002       2178112003       29.80      0.0250     0.000      0.000      0.0000     0.0000
C_29418          2178112003!      2178112004!      30.10      0.0250     0.000      0.000      0.0000     0.0000
C_29419          2178112003       2178112004       30.10      0.0250     0.000      0.000      0.0000     0.0000
C_29420          2178112004!      2178102902!      29.90      0.0250     0.000      0.000      0.0000     0.0000
C_29421          2178112004       2178102902       29.90      0.0250     0.000      0.000      0.0000     0.0000
C_29422          2178112101!      2178111103!      5.00       0.0250     0.000      0.000      0.0000     0.0000
C_29423          2178112101       2178111103       5.00       0.0250     0.000      0.000      0.0000     0.0000
C_29424          2178112102!      2178112001!      30.80      0.0250     0.000      0.000      0.0000     0.0000
C_29425          2178112102       2178112001       30.80      0.0250     0.000      0.000      0.0000     0.0000
C_29426          2178112103!      2178112101!      15.60      0.0160     0.000      0.000      0.0000     0.0000
C_29427          2178112103       2178112101       15.60      0.0160     0.000      0.000      0.0000     0.0000
C_29428          2178112104!      2178112103!      45.50      0.0250     0.000      0.012      0.0000     0.0000
C_29429          2178112104       2178112103       45.50      0.0250     0.000      0.012      0.0000     0.0000
C_29431          2178112105       2178112104       15.90      0.0160     0.000      0.000      0.0000     0.0000
C_29433          2178112106       2178112105       15.40      0.0250     0.000      0.000      0.0000     0.0000
C_29434          2178112401!      2178111301!      90.90      0.0250     0.000      0.000      0.0000     0.0000
C_29435          2178112401       2178111301       90.90      0.0250     0.000      0.000      0.0000     0.0000
C_29436          2178112402!      2178112401!      70.90      0.0250     0.000      0.000      0.0000     0.0000
C_29438          2178112501!      2178111504!      29.90      0.0160     0.000      0.000      0.0000     0.0000
C_29439          2178112501       2178111504       29.90      0.0160     0.000      0.000      0.0000     0.0000
C_29440          2178112502!      2178112501!      30.00      0.0250     0.000      0.000      0.0000     0.0000
C_29441          2178112502       2178112501       30.00      0.0250     0.000      0.000      0.0000     0.0000
C_29442          2178112503!      2178112502!      29.90      0.0250     0.000      0.000      0.0000     0.0000
C_29443          2178112503       2178112502       29.90      0.0250     0.000      0.000      0.0000     0.0000
C_29445          2178113101       2178112106       29.40      0.0250     0.000      0.000      0.0000     0.0000
C_29447          2178113102       2178113101       5.40       0.0250     0.000      0.000      0.0000     0.0000
C_29449          2178113103       2178113102       12.10      0.0160     0.000      0.000      0.0000     0.0000
C_29450          2178113501!      2178112503!      30.20      0.0250     0.000      0.000      0.0000     0.0000
C_29451          2178113501       2178112503       30.20      0.0250     0.000      0.000      0.0000     0.0000
C_29454          2178113503!      2178113501!      30.00      0.0250     0.000      0.000      0.0000     0.0000
C_29455          2178113503       2178113501       30.00      0.0250     0.000      0.000      0.0000     0.0000
C_29456          2178113504!      2178113503!      29.90      0.0250     0.000      0.000      0.0000     0.0000
C_29457          2178113504       2178113503       29.90      0.0250     0.000      0.000      0.0000     0.0000
C_29458          2178113505!      2178113504!      30.10      0.0250     0.000      0.000      0.0000     0.0000
C_29459          2178113505       2178113504       30.10      0.0250     0.000      0.000      0.0000     0.0000
C_29464          2178114601!      2178113505!      29.90      0.0250     0.000      0.000      0.0000     0.0000
C_29465          2178114601       2178113505       29.90      0.0250     0.000      0.000      0.0000     0.0000
C_29466          2178114602!      2178114601!      29.90      0.0250     0.000      0.000      0.0000     0.0000
C_29467          2178114602       2178114601       29.90      0.0250     0.000      0.000      0.0000     0.0000
C_29468          2178114603!      2178114602!      30.10      0.0250     0.000      0.000      0.0000     0.0000
C_29469          2178114603       2178114602       30.10      0.0250     0.000      0.000      0.0000     0.0000
C_29470          2178115601!      2178114603!      30.00      0.0250     0.000      0.000      0.0000     0.0000
C_29471          2178115601       2178114603       30.00      0.0250     0.000      0.000      0.0000     0.0000
C_29472          2178115602!      2178115601!      30.00      0.0250     0.000      0.000      0.0000     0.0000
C_29473          2178115602       2178115601       30.00      0.0250     0.000      0.000      0.0000     0.0000
C_29474          2178115603!      2178115602!      30.10      0.0250     0.000      0.000      0.0000     0.0000
C_29475          2178115603       2178115602       30.10      0.0250     0.000      0.000      0.0000     0.0000
C_29476          2178115604!      2178115603!      30.00      0.0250     0.000      0.000      0.0000     0.0000
C_29477          2178115604       2178115603       30.00      0.0250     0.000      0.000      0.0000     0.0000
C_29478          2178115901!      2178115902!      7.90       0.0160     0.000      0.000      0.0000     0.0000
C_29479          2178115901       2178115902       7.90       0.0160     0.000      0.000      0.0000     0.0000
C_29480          2178115902!      2178116901!      62.90      0.0160     0.000      0.000      0.0000     0.0000
C_29481          2178115902       2178116901       62.90      0.0160     0.000      0.000      0.0000     0.0000
C_29482          2178116601!      2178115604!      30.00      0.0250     0.000      0.000      0.0000     0.0000
C_29483          2178116601       2178115604       30.00      0.0250     0.000      0.000      0.0000     0.0000
C_29484          2178116602!      2178116601!      30.10      0.0250     0.000      0.000      0.0000     0.0000
C_29485          2178116602       2178116601       30.10      0.0250     0.000      0.000      0.0000     0.0000
C_29486          2178116603!      2178116602!      25.10      0.0250     0.000      0.000      0.0000     0.0000
C_29487          2178116603       2178116602       25.10      0.0250     0.000      0.000      0.0000     0.0000
C_29488          2178116701!      2178116702!      45.90      0.0160     0.000      0.000      0.0000     0.0000
C_29489          2178116701       2178116702       45.90      0.0160     0.000      0.000      0.0000     0.0000
C_29490          2178116702!      2178116603!      38.10      0.0160     0.000      0.000      0.0000     0.0000
C_29491          2178116702       2178116603       38.10      0.0160     0.000      0.000      0.0000     0.0000
C_29492          2178116801!      2178116701!      84.10      0.0160     0.000      0.000      0.0000     0.0000
C_29493          2178116801       2178116701       84.10      0.0160     0.000      0.000      0.0000     0.0000
C_29494          2178116901!      2178116902!      5.60       0.0160     0.000      0.000      0.0000     0.0000
C_29495          2178116901       2178116902       5.60       0.0160     0.000      0.000      0.0000     0.0000
C_29496          2178116902!      2178116904!      24.90      0.0160     0.000      0.000      0.0000     0.0000
C_29497          2178116902       2178116904       24.90      0.0160     0.000      0.000      0.0000     0.0000
C_29498          2178116903!      2178116801!      78.60      0.0160     0.000      0.000      0.0000     0.0000
C_29499          2178116903       2178116801       78.60      0.0160     0.000      0.000      0.0000     0.0000
C_29500          2178116904!      2178116903!      23.60      0.0160     0.000      0.000      0.0000     0.0000
C_29501          2178116904       2178116903       23.60      0.0160     0.000      0.000      0.0000     0.0000
C_29523          2178123901       2178133003       30.10      0.0160     0.000      0.000      0.0000     0.0000
C_29524          2178123902       2178123901       30.00      0.0160     0.000      0.000      0.0000     0.0000
C_29525          2178123903       2178123902       30.10      0.0160     0.000      0.000      0.0000     0.0000
C_29526          2178124101!      2178125101!      29.40      0.0160     0.000      0.000      0.0000     0.0000
C_29527          2178124101       2178125101       29.40      0.0160     0.000      0.000      0.0000     0.0000
C_29528          2178124201!      2178124202!      33.30      0.0160     0.000      0.000      0.0000     0.0000
C_29530          2178124202!      2178124101!      18.80      0.0160     0.000      0.000      0.0000     0.0000
C_29531          2178124202       2178124101       18.80      0.0160     0.000      0.000      0.0000     0.0000
C_29532          2178124801       2178124902       30.60      0.0160     0.000      0.000      0.0000     0.0000
C_29533          2178124802       2178124801       27.10      0.0160     0.000      0.000      0.0000     0.0000
C_29534          2178124901       2178123903       30.00      0.0160     0.000      0.000      0.0000     0.0000
C_29535          2178124902       2178124901       32.30      0.0160     0.000      0.000      0.0000     0.0000
C_29536          2178125001!      2178125002!      3.90       0.0160     0.000      0.000      0.0000     0.0000
C_29537          2178125001       2178125002       3.90       0.0160     0.000      0.000      0.0000     0.0000
C_29538          2178125002!      2178125003!      11.30      0.0160     0.000      0.000      0.0000     0.0000
C_29539          2178125002       2178125003       11.30      0.0160     0.000      0.000      0.0000     0.0000
C_29540          2178125003!      2178125005!      35.10      0.0160     0.000      0.000      0.0000     0.0000
C_29541          2178125003       2178125005       35.10      0.0160     0.000      0.000      0.0000     0.0000
C_29542          2178125004!      2178125001!      56.10      0.0160     0.000      0.000      0.0000     0.0000
C_29543          2178125004       2178125001       56.10      0.0160     0.000      0.000      0.0000     0.0000
C_29544          2178125005!      2178115901!      40.10      0.0160     0.000      0.000      0.0000     0.0000
C_29545          2178125005       2178115901       40.10      0.0160     0.000      0.000      0.0000     0.0000
C_29546          2178125101!      2178125102!      23.40      0.0160     0.000      0.000      0.0000     0.0000
C_29547          2178125101       2178125102       23.40      0.0160     0.000      0.000      0.0000     0.0000
C_29548          2178125102!      2178125103!      32.60      0.0160     0.000      0.000      0.0000     0.0000
C_29549          2178125102       2178125103       32.60      0.0160     0.000      0.000      0.0000     0.0000
C_29550          2178125103!      2178125004!      74.90      0.0160     0.000      0.000      0.0000     0.0000
C_29551          2178125103       2178125004       74.90      0.0160     0.000      0.000      0.0000     0.0000
C_29552          2178125801       2178124802       57.20      0.0160     0.000      0.000      0.0000     0.0000
C_29553          2178125901       2178125801       89.10      0.0160     0.000      0.000      0.0000     0.0000
C_29554          2178126901       2178125901       75.90      0.0160     0.000      0.000      0.0000     0.0000
C_29555          2178127901       2178126901       109.40     0.0160     0.000      0.000      0.0000     0.0000
C_29556          2178128901       2178127901       101.00     0.0160     0.000      0.000      0.0000     0.0000
C_29557          2178130401       2177139402       9.80       0.0160     0.000      0.000      0.0000     0.0000
C_29558          2178130402       2178130403       44.70      0.0160     0.000      0.000      0.0000     0.0000
C_29559          2178130403       2178130401       38.60      0.0160     0.000      0.000      0.0000     0.0000
C_29560          2178130404       2178130403       35.60      0.0250     0.000      0.000      0.0000     0.0000
C_29561          2178130405       2178130404       14.80      0.0250     0.000      0.000      0.0000     0.0000
C_29562          2178130406       2178130405       8.10       0.0250     0.000      0.000      0.0000     0.0000
C_29563          2178130407       2178130405       14.20      0.0250     0.000      0.000      0.0000     0.0000
C_29564          2178130408       2178130406       24.80      0.0250     0.000      0.000      0.0000     0.0000
C_29565          2178130501       2178130608       17.40      0.0250     0.000      0.000      0.0000     0.0000
C_29566          2178130601       2177139605       8.10       0.0250     0.000      0.000      0.0000     0.0000
C_29567          2178130602       2178130601       21.10      0.0250     0.000      0.000      0.0000     0.0000
C_29568          2178130603       2178130602       8.90       0.0250     0.000      0.000      0.0000     0.0000
C_29569          2178130604       2178130603       12.50      0.0250     0.000      0.000      0.0000     0.0000
C_29570          2178130605       2178130604       14.20      0.0160     0.000      0.000      0.0000     0.0000
C_29571          2178130606       2178130605       6.70       0.0160     0.000      0.000      0.0000     0.0000
C_29572          2178130607       2178130606       8.00       0.0160     0.000      0.000      0.0000     0.0000
C_29573          2178130608       2178130607       16.10      0.0160     0.000      0.000      0.0000     0.0000
C_29574          2178130609       2178130501       13.20      0.0250     0.000      0.000      0.0000     0.0000
C_29575          2178130701       2177139708       17.40      0.0250     0.000      0.024      0.0000     0.0000
C_29576          2178130702       2178130706       27.30      0.0250     0.000      0.000      0.0000     0.0000
C_29577          2178130703       2178130702       7.40       0.0250     0.000      0.000      0.0000     0.0000
C_29578          2178130704       2178130701       11.40      0.0250     0.000      0.000      0.0000     0.0000
C_29579          2178130705       2178130703       9.70       0.0250     0.000      0.000      0.0000     0.0000
C_29580          2178130706       2178130704       12.40      0.0250     0.000      0.000      0.0000     0.0000
C_29581          2178130707       2178130705       9.10       0.0250     0.000      0.000      0.0000     0.0000
C_29582          2178130708       2178130707       6.50       0.0250     0.000      0.000      0.0000     0.0000
C_29583          2178130709       2178130708       16.00      0.0250     0.000      0.000      0.0000     0.0000
C_29584          2178130710       2178130709       9.40       0.0250     0.000      0.000      0.0000     0.0000
C_29585          2178130711       2178130710       22.30      0.0250     0.000      0.000      0.0000     0.0000
C_29586          2178130801       2178130711       18.20      0.0250     0.000      0.000      0.0000     0.0000
C_29587          2178130802       2178130801       15.10      0.0250     0.000      0.000      0.0000     0.0000
C_29588          2178130803       2178130802       14.70      0.0250     0.000      0.000      0.0000     0.0000
C_29589          2178130901       2177138801       200.70     0.0160     0.000      0.000      0.0000     0.0000
C_29590          2178131201       2178131304       30.40      0.0160     0.000      0.000      0.0000     0.0000
C_29591          2178131202       2178131201       29.90      0.0160     0.000      0.000      0.0000     0.0000
C_29592          2178131301       2178130407       30.30      0.0250     0.000      0.000      0.0000     0.0000
C_29593          2178131302       2178131301       30.00      0.0250     0.000      0.000      0.0000     0.0000
C_29594          2178131303       2178131302       25.30      0.0160     0.000      0.000      0.0000     0.0000
C_29595          2178131304       2178131303       28.50      0.0160     0.000      0.000      0.0000     0.0000
C_29596          2178131401       2178130408       9.80       0.0250     0.000      0.000      0.0000     0.0000
C_29597          2178131402       2178131401       23.30      0.0250     0.000      0.000      0.0000     0.0000
C_29598          2178131403       2178131402       27.40      0.0250     0.000      0.000      0.0000     0.0000
C_29599          2178131404       2178131403       8.70       0.0250     0.000      0.000      0.0000     0.0000
C_29600          2178131405       2178131404       25.20      0.0160     0.000      0.000      0.0000     0.0000
C_29601          2178131406       2178131405       14.60      0.0160     0.000      0.000      0.0000     0.0000
C_29602          2178131601       2178130609       14.00      0.0250     0.000      0.000      0.0000     0.0000
C_29603          2178131602       2178131601       15.60      0.0250     0.000      0.000      0.0000     0.0000
C_29604          2178131603       2178131602       7.40       0.0250     0.000      0.000      0.0000     0.0000
C_29605          2178131604       2178131603       21.80      0.0250     0.000      0.000      0.0000     0.0000
C_29606          2178131605       2178131604       26.30      0.0250     0.000      0.000      0.0000     0.0000
C_29607          2178131606       2178131605       15.50      0.0250     0.000      0.000      0.0000     0.0000
C_29608          2178131607       2178131606       20.70      0.0250     0.000      0.000      0.0000     0.0000
C_29609          2178131608       2178131607       20.60      0.0250     0.000      0.000      0.0000     0.0000
C_29610          2178131801       2178130803       14.90      0.0250     0.000      0.000      0.0000     0.0000
C_29611          2178131802       2178131801       16.10      0.0250     0.000      0.000      0.0000     0.0000
C_29612          2178131803       2178131802       18.30      0.0160     0.000      0.000      0.0000     0.0000
C_29613          2178131804       2178131803       10.10      0.0160     0.000      0.000      0.0000     0.0000
C_29614          2178131805       2178131804       28.10      0.0160     0.000      0.000      0.0000     0.0000
C_29615          2178131806       2178131805       4.00       0.0160     0.000      0.000      0.0000     0.0000
C_29616          2178131901       2178130901       84.20      0.0160     0.000      0.000      0.0000     0.0000
C_29617          2178131902       2178131806       29.50      0.0250     0.000      0.000      0.0000     0.0000
C_29618          2178132001       2178132104       30.10      0.0160     0.000      0.000      0.0000     0.0000
C_29619          2178132101       2178132202       30.10      0.0160     0.000      0.000      0.0000     0.0000
C_29620          2178132102       2178132101       29.20      0.0160     0.000      0.000      0.0000     0.0000
C_29621          2178132103       2178132102       30.20      0.0160     0.000      0.000      0.0000     0.0000
C_29622          2178132104       2178132103       30.10      0.0160     0.000      0.000      0.0000     0.0000
C_29623          2178132201       2178131202       29.60      0.0160     0.000      0.000      0.0000     0.0000
C_29624          2178132202       2178132201       30.80      0.0160     0.000      0.000      0.0000     0.0000
C_29625          2178132401       2178131406       11.20      0.0250     0.000      0.000      0.0000     0.0000
C_29626          2178132402       2178132401       5.20       0.0250     0.000      0.000      0.0000     0.0000
C_29627          2178132403       2178132402       14.00      0.0250     0.000      0.000      0.0000     0.0000
C_29628          2178132404       2178132403       10.70      0.0250     0.000      0.000      0.0000     0.0000
C_29629          2178132405       2178132404       12.10      0.0250     0.000      0.000      0.0000     0.0000
C_29630          2178132406       2178132405       18.30      0.0250     0.000      0.000      0.0000     0.0000
C_29631          2178132407       2178132406       16.10      0.0250     0.000      0.000      0.0000     0.0000
C_29632          2178132408       2178132407       21.30      0.0250     0.000      0.000      0.0000     0.0000
C_29633          2178132501       2178132408       29.80      0.0250     0.000      0.000      0.0000     0.0000
C_29634          2178132601       2178131608       10.10      0.0250     0.000      0.000      0.0000     0.0000
C_29635          2178132602       2178132601       14.50      0.0250     0.000      0.000      0.0000     0.0000
C_29636          2178132603       2178132602       16.00      0.0250     0.000      0.000      0.0000     0.0000
C_29637          2178132604       2178132603       20.90      0.0160     0.000      0.000      0.0000     0.0000
C_29638          2178132605       2178132604       11.30      0.0160     0.000      0.000      0.0000     0.0000
C_29639          2178132606       2178132605       28.70      0.0250     0.000      0.000      0.0000     0.0000
C_29640          2178132607       2178132606       30.00      0.0250     0.000      0.000      0.0000     0.0000
C_29641          2178132901       2178131902       30.80      0.0250     0.000      0.000      0.0000     0.0000
C_29642          2178132902       2178132901       29.20      0.0250     0.000      0.000      0.0000     0.0000
C_29646          2178132906       2178131901       131.30     0.0160     0.000      0.000      0.0000     0.0000
C_29647          2178133001       2178132001       29.70      0.0250     0.000      0.000      0.0000     0.0000
C_29648          2178133002       2178133001       27.60      0.0250     0.000      0.000      0.0000     0.0000
C_29649          2178133003       2178133002       26.50      0.0160     0.000      0.000      0.0000     0.0000
C_29650          2178133401       2178133501       23.70      0.0250     0.000      0.000      0.0000     0.0000
C_29651          2178133402       2178133401       19.60      0.0250     0.000      0.000      0.0000     0.0000
C_29652          2178133403       2178133402       21.90      0.0250     0.000      0.000      0.0000     0.0000
C_29653          2178133404       2178133403       25.50      0.0250     0.000      0.000      0.0000     0.0000
C_29654          2178133501       2178132501       28.30      0.0250     0.000      0.000      0.0000     0.0000
C_29655          2178133601       2178132607       8.70       0.0250     0.000      0.000      0.0000     0.0000
C_29656          2178133602       2178133601       21.40      0.0250     0.000      0.000      0.0000     0.0000
C_29657          2178133701       2178133602       30.20      0.0250     0.000      0.000      0.0000     0.0000
C_29658          2178133702       2178133701       30.30      0.0250     0.000      0.000      0.0000     0.0000
C_29659          2178133703       2178133702       17.60      0.0160     0.000      0.000      0.0000     0.0000
C_29660          2178133704       2178133703       4.20       0.0160     0.000      0.000      0.0000     0.0000
C_29661          2178133705       2178133704       5.80       0.0250     0.000      0.000      0.0000     0.0000
C_29662          2178133706       2178133705       29.40      0.0160     0.000      0.000      0.0000     0.0000
C_29663          2178133707       2178133706       17.20      0.0160     0.000      0.000      0.0000     0.0000
C_29664          2178133708       2178133707       15.20      0.0160     0.000      0.000      0.0000     0.0000
C_29665          2178133901       2178132906       132.90     0.0160     0.000      0.000      0.0000     0.0000
C_29666          2178134401       2178133404       35.70      0.0250     0.000      0.000      0.0000     0.0000
C_29667          2178134402       2178134401       40.30      0.0250     0.000      0.000      0.0000     0.0000
C_29668          2178134403       2178134402       22.40      0.0250     0.000      0.000      0.0000     0.0000
C_29669          2178134801       2178133708       29.50      0.0160     0.000      0.000      0.0000     0.0000
C_29670          2178134802       2178134801       31.00      0.0160     0.000      0.000      0.0000     0.0000
C_29671          2178134803       2178134802       13.20      0.0160     0.000      0.000      0.0000     0.0000
C_29672          2178134804       2178134803       5.60       0.0160     0.000      0.000      0.0000     0.0000
C_29673          2178134805       2178134804       9.80       0.0250     0.000      0.000      0.0000     0.0000
C_29674          2178134806       2178134805       9.40       0.0250     0.000      0.000      0.0000     0.0000
C_29677          2178134809       2178133901       126.50     0.0160     0.000      0.000      0.0000     0.0000
C_29678          2178135401       2178134403       24.90      0.0250     0.000      0.000      0.0000     0.0000
C_29679          2178135402       2178135401       26.90      0.0250     0.000      0.000      0.0000     0.0000
C_29680          2178135403       2178135404       22.20      0.0250     0.000      0.000      0.0000     0.0000
C_29681          2178135404       2178135402       22.30      0.0250     0.000      0.000      0.0000     0.0000
C_29682          2178135801       2178134809       51.60      0.0250     0.000      1.258      0.0000     0.0000
C_29683          2178135802       2178135801       26.70      0.0250     0.000      0.000      0.0000     0.0000
C_29684          2178135803       2178135802       31.50      0.0250     0.000      0.000      0.0000     0.0000
C_29685          2178136401       2178135403       57.10      0.0250     0.000      0.000      0.0000     0.0000
C_29686          2178136402       2178136401       39.20      0.0250     0.000      0.000      0.0000     0.0000
C_29687          2178136403       2178136402       10.20      0.0250     0.000      0.000      0.0000     0.0000
C_29688          2178136404       2178136403       11.90      0.0250     0.000      0.000      0.0000     0.0000
C_29689          2178136501       2178136404       33.20      0.0250     0.000      0.000      0.0000     0.0000
C_29690          2178136502       2178136501       35.40      0.0250     0.000      0.000      0.0000     0.0000
C_29691          2178136503       2178136502       38.40      0.0250     0.000      0.000      0.0000     0.0000
C_29692          2178136701       2178134809       152.40     0.0160     0.000      0.000      0.0000     0.0000
C_29693          2178136801       2178135803       64.90      0.0250     0.000      0.000      0.0000     0.0000
C_29694          2178137601       2178136503       32.10      0.0250     0.000      0.000      0.0000     0.0000
C_29695          2178137602       2178136701       160.40     0.0160     0.000      0.000      0.0000     0.0000
C_29696          2178137603       2178137602       36.80      0.0250     0.000      0.548      0.0000     0.0000
C_29697          2178137801       2178137603       191.30     0.0160     0.000      0.000      0.0000     0.0000
C_29699          2178138101       2178128901       185.50     0.0160     0.000      0.000      0.0000     0.0000
C_29700          2178138601       2178137603       160.10     0.0160     0.000      0.300      0.0000     0.0000
C_29701          2178139601       2178138601       101.90     0.0160     0.000      0.000      0.0000     0.0000
C_29702          2178142001       2178132906       28.00      0.0250     0.000      0.696      0.0000     0.0000
C_29703          2178142002       2178142005       20.50      0.0250     0.000      0.000      0.0000     0.0000
C_29704          2178142003       2178142001       26.70      0.0250     0.000      0.000      0.0000     0.0000
C_29705          2178142004       2178142003       24.20      0.0250     0.000      0.000      0.0000     0.0000
C_29706          2178142005       2178142004       6.00       0.0250     0.000      0.000      0.0000     0.0000
C_29707          2178142101       2178142104       29.80      0.0250     0.000      0.000      0.0000     0.0000
C_29708          2178142102       2178142101       29.10      0.0250     0.000      0.000      0.0000     0.0000
C_29709          2178142103       2178142002       15.20      0.0250     0.000      0.000      0.0000     0.0000
C_29710          2178142104       2178142103       32.40      0.0250     0.000      0.000      0.0000     0.0000
C_29711          2178142201       2178142102       27.30      0.0160     0.000      0.000      0.0000     0.0000
C_29712          2178142202       2178142201       7.90       0.0160     0.000      0.000      0.0000     0.0000
C_29713          2178142203       2178142202       25.60      0.0250     0.000      0.000      0.0000     0.0000
C_29714          2178142204       2178142203       30.00      0.0250     0.000      0.000      0.0000     0.0000
C_29715          2178143001       2178142004       34.50      0.0250     0.000      0.000      0.0000     0.0000
C_29716          2178143002       2178143001       19.40      0.0160     0.000      0.000      0.0000     0.0000
C_29717          2178143003       2178143002       7.10       0.0250     0.000      0.000      0.0000     0.0000
C_29718          2178143004       2178143003       3.80       0.0250     0.000      0.000      0.0000     0.0000
C_29719          2178143005       2178143004       10.60      0.0250     0.000      0.000      0.0000     0.0000
C_29720          2178143006       2178143005       20.20      0.0250     0.000      0.000      0.0000     0.0000
C_29721          2178143007       2178143006       29.10      0.0250     0.000      0.000      0.0000     0.0000
C_29722          2178143201       2178142204       29.10      0.0250     0.000      0.000      0.0000     0.0000
C_29723          2178143301       2178143201       30.90      0.0250     0.000      0.000      0.0000     0.0000
C_29724          2178143302       2178143301       30.30      0.0250     0.000      0.000      0.0000     0.0000
C_29725          2178143303       2178143302       30.60      0.0250     0.000      0.000      0.0000     0.0000
C_29726          2178143401       2178143303       28.50      0.0250     0.000      0.000      0.0000     0.0000
C_29727          2178143402       2178143401       29.90      0.0250     0.000      0.000      0.0000     0.0000
C_29728          2178144001       2178143007       30.00      0.0250     0.000      0.000      0.0000     0.0000
C_29729          2178144101       2178144001       21.10      0.0250     0.000      0.000      0.0000     0.0000
C_29730          2178144102       2178144101       9.10       0.0250     0.000      0.000      0.0000     0.0000
C_29731          2178144103       2178144102       16.80      0.0250     0.000      0.000      0.0000     0.0000
C_29732          2178144104       2178144103       12.90      0.0250     0.000      0.000      0.0000     0.0000
C_29733          2178144105       2178144104       14.20      0.0250     0.000      0.000      0.0000     0.0000
C_29734          2178144106       2178144105       8.00       0.0250     0.000      0.000      0.0000     0.0000
C_29735          2178145101       2178144106       7.80       0.0250     0.000      0.000      0.0000     0.0000
C_29736          2178145102       2178145101       20.00      0.0250     0.000      0.000      0.0000     0.0000
C_29737          2178145103       2178145102       9.80       0.0160     0.000      0.000      0.0000     0.0000
C_29738          2178145104       2178145103       10.10      0.0160     0.000      0.000      0.0000     0.0000
C_29739          2178145105       2178145104       19.70      0.0250     0.000      0.000      0.0000     0.0000
C_29740          2178145106       2178145105       22.90      0.0250     0.000      0.000      0.0000     0.0000
C_29741          2178145107       2178145106       10.00      0.0250     0.000      0.000      0.0000     0.0000
C_29742          2178146101       2178145107       33.60      0.0250     0.000      0.000      0.0000     0.0000
C_29743          2178146201       2178146101       26.80      0.0160     0.000      0.000      0.0000     0.0000
C_29744          2178146202       2178146201       16.90      0.0160     0.000      0.000      0.0000     0.0000
C_29745          2178146203       2178146202       13.00      0.0160     0.000      0.000      0.0000     0.0000
C_29746          2178146204       2178146203       21.20      0.0250     0.000      0.000      0.0000     0.0000
C_29747          2178146205       2178146204       8.80       0.0250     0.000      0.000      0.0000     0.0000
C_29748          2178146206       2178146205       18.50      0.0250     0.000      0.000      0.0000     0.0000
C_29749          2178146207       2178146206       13.00      0.0250     0.000      0.000      0.0000     0.0000
C_29750          2178146208       2178146209       22.60      0.0250     0.000      0.000      0.0000     0.0000
C_29751          2178146209       2178146207       12.10      0.0250     0.000      0.000      0.0000     0.0000
C_29752          2178147001       2178137801       178.00     0.0160     0.000      0.186      0.0000     0.0000
C_29753          2178147201       2178146208       26.80      0.0250     0.000      0.000      0.0000     0.0000
C_29754          2178147202       2178147201       18.70      0.0250     0.000      0.000      0.0000     0.0000
C_29755          2178147203       2178147202       19.60      0.0250     0.000      0.000      0.0000     0.0000
C_29756          2178147204       2178147203       22.40      0.0250     0.000      0.000      0.0000     0.0000
C_29757          2178147301       2178147204       29.70      0.0250     0.000      0.000      0.0000     0.0000
C_29758          2178147302       2178147301       19.90      0.0250     0.000      0.000      0.0000     0.0000
C_29761          2178148201       2178147001       165.90     0.0160     0.000      0.000      0.0000     0.0000
C_29763          2178148301       2178148201       123.70     0.0160     0.000      0.000      0.0000     0.0000
C_29764          2178148401       2178148301       116.70     0.0160     0.000      0.597      0.0000     0.0000
C_29765          2178148501       2178148401       97.30      0.0160     0.000      0.000      0.0000     0.0000
C_29766          2178148701       2178148501       165.50     0.0160     0.000      0.000      0.0000     0.0000
C_29767          2178148801       2178148701       102.40     0.0160     0.000      0.000      0.0000     0.0000
C_29768          2178149701       2178148801       81.10      0.0160     0.000      0.000      0.0000     0.0000
C_30001          2179090701       2179090702       33.10      0.0160     0.000      0.000      0.0000     0.0000
C_30002          2179090702       2179092601       135.10     0.0160     0.000      0.000      0.0000     0.0000
C_30006          2179092601       2179093701       117.90     0.0160     0.000      0.000      0.0000     0.0000
C_30008          2179093701       2179094801       213.60     0.0160     0.000      0.000      0.0000     0.0000
C_30009          2179094801       2179094802       76.80      0.0160     0.000      0.000      0.0000     0.0000
C_30010          2179094802       2179107001       261.20     0.0160     0.000      0.000      0.0000     0.0000
C_30024          2179098801       2179098802       70.50      0.0160     0.000      0.000      0.0000     0.0000
C_30025          2179098802       2179099902       81.70      0.0160     0.000      0.007      0.0000     0.0000
C_30026          2179098901       2179098902       12.70      0.0250     0.000      0.000      0.0000     0.0000
C_30027          2179098902       2179099901       34.30      0.0250     0.000      0.000      0.0000     0.0000
C_30035          2179099901       2179099902       31.40      0.0250     0.000      0.000      0.0000     0.0000
C_30036          2179099902       2179099903       37.70      0.0250     0.000      0.000      0.0000     0.0000
C_30037          2179099903       2179099904       19.60      0.0250     0.000      0.000      0.0000     0.0000
C_30038          2179099904       2180090901       29.90      0.0250     0.000      0.000      0.0000     0.0000
C_30039          2179100101       2179100102       30.00      0.0250     0.000      0.000      0.0000     0.0000
C_30040          2179100102       2179100103       30.40      0.0250     0.000      0.000      0.0000     0.0000
C_30041          2179100103       2179100104       29.90      0.0250     0.000      0.000      0.0000     0.0000
C_30042          2179100104       2179101101       29.70      0.0250     0.000      0.000      0.0000     0.0000
C_30043          2179100801       2178109701       177.40     0.0160     0.000      0.000      0.0000     0.0000
C_30044          2179101101       2179101102       30.40      0.0250     0.000      0.000      0.0000     0.0000
C_30045          2179101102       2179101103       29.50      0.0250     0.000      0.000      0.0000     0.0000
C_30046          2179101103       2179102201       35.40      0.0250     0.000      0.000      0.0000     0.0000
C_30047          2179101401       2179102401       144.40     0.0160     0.000      0.000      0.0000     0.0000
C_30048          2179101601       2179101401       228.40     0.0160     0.000      0.000      0.0000     0.0000
C_30049          2179101901       2179100801       160.00     0.0160     0.000      0.000      0.0000     0.0000
C_30050          2179102101       2179102102       19.60      0.0250     0.000      0.000      0.0000     0.0000
C_30051          2179102102       2179102103       10.50      0.0250     0.000      0.000      0.0000     0.0000
C_30052          2179102103       2179102202       29.90      0.0250     0.000      0.000      0.0000     0.0000
C_30053          2179102201       2179102101       25.70      0.0250     0.000      0.000      0.0000     0.0000
C_30054          2179102202       2179102203       31.70      0.0250     0.000      0.000      0.0000     0.0000
C_30055          2179102203       2179102204       29.30      0.0250     0.000      0.000      0.0000     0.0000
C_30056          2179102204       2179103301       34.20      0.0250     0.000      0.000      0.0000     0.0000
C_30057          2179102401       2179103306       87.40      0.0160     0.000      0.000      0.0000     0.0000
C_30058          2179103201       2179103202       5.20       0.0250     0.000      0.000      0.0000     0.0000
C_30059          2179103202       2179103203       52.30      0.0250     0.000      0.000      0.0000     0.0000
C_30060          2179103203       2179104201       29.30      0.0250     0.000      0.000      0.0000     0.0000
C_30061          2179103301       2179103302       9.10       0.0250     0.000      0.000      0.0000     0.0000
C_30062          2179103302       2179103303       7.80       0.0250     0.000      0.000      0.0000     0.0000
C_30063          2179103303       2179103305       27.50      0.0160     0.000      0.000      0.0000     0.0000
C_30064          2179103304       2179103302       32.50      0.0160     0.000      0.000      0.0000     0.0000
C_30065          2179103305       2179103201       8.80       0.0250     0.000      0.000      0.0000     0.0000
C_30066          2179103306       2179103304       53.40      0.0160     0.000      0.000      0.0000     0.0000
C_30068          2179104101       2179104102       31.80      0.0250     0.000      0.000      0.0000     0.0000
C_30069          2179104102       2179105101       29.50      0.0250     0.000      0.000      0.0000     0.0000
C_30070          2179104201       2179104202       31.10      0.0250     0.000      0.000      0.0000     0.0000
C_30071          2179104202       2179104101       31.80      0.0250     0.000      0.000      0.0000     0.0000
C_30072          2179105001       2179105002       29.80      0.0250     0.000      0.000      0.0000     0.0000
C_30073          2179105002       2179106001       6.50       0.0250     0.000      0.000      0.0000     0.0000
C_30074          2179105101       2179105102       31.20      0.0250     0.000      0.000      0.0000     0.0000
C_30075          2179105102       2179105103       28.10      0.0250     0.000      0.000      0.0000     0.0000
C_30076          2179105103       2179105001       29.40      0.0250     0.000      0.000      0.0000     0.0000
C_30080          2179106001       2179106002       18.30      0.0250     0.000      0.000      0.0000     0.0000
C_30081          2179106002       2179106003       18.20      0.0250     0.000      0.000      0.0000     0.0000
C_30082          2179106003       2179106004       17.50      0.0250     0.000      0.000      0.0000     0.0000
C_30083          2179106004       2179106005       29.60      0.0250     0.000      0.000      0.0000     0.0000
C_30084          2179106005       2179107002       30.30      0.0250     0.000      0.000      0.0000     0.0000
C_30109          2179107001       2179098801       167.90     0.0160     0.000      0.000      0.0000     0.0000
C_30110          2179107002       2179107003       30.00      0.0250     0.000      0.000      0.0000     0.0000
C_30111          2179107003       2179107004       30.20      0.0250     0.000      0.000      0.0000     0.0000
C_30112          2179107004       2179107005       16.00      0.0250     0.000      0.000      0.0000     0.0000
C_30113          2179107005       2179107006       12.40      0.0250     0.000      0.000      0.0000     0.0000
C_30114          2179107006       2179108001       12.00      0.0250     0.000      0.000      0.0000     0.0000
C_30115          2179108001       2179108002       20.80      0.0160     0.000      0.000      0.0000     0.0000
C_30116          2179108002       2179108003       4.40       0.0250     0.000      0.000      0.0000     0.0000
C_30117          2179108003       2179108004       27.00      0.0250     0.000      0.000      0.0000     0.0000
C_30118          2179108004       2179108005       8.80       0.0250     0.000      0.000      0.0000     0.0000
C_30119          2179108005       2179108006       49.50      0.0160     0.000      0.000      0.0000     0.0000
C_30120          2179108006       2179098901       13.50      0.0160     0.000      0.000      0.0000     0.0000
C_30141          2179111103       2179112101       68.20      0.0160     0.000      0.000      0.0000     0.0000
C_30143          2179111202       2179111203       6.10       0.0250     0.000      0.000      0.0000     0.0000
C_30144          2179111203       2179111204       19.20      0.0160     0.000      0.000      0.0000     0.0000
C_30145          2179111204       2179111206       11.80      0.0160     0.000      0.000      0.0000     0.0000
C_30146          2179111205       2179111202       31.80      0.0250     0.000      0.000      0.0000     0.0000
C_30148          2179111206       2179111103       62.10      0.0160     0.000      0.084      0.0000     0.0000
C_30149          2179111301       2179111302       12.70      0.0160     0.000      0.000      0.0000     0.0000
C_30150          2179111302       2179111304       4.80       0.0250     0.000      0.000      0.0000     0.0000
C_30151          2179111303       2179111301       8.30       0.0250     0.000      0.000      0.0000     0.0000
C_30152          2179111304       2179111205       16.90      0.0250     0.000      0.000      0.0000     0.0000
C_30153          2179112101       2179101901       172.50     0.0160     0.000      0.000      0.0000     0.0000
C_30156          2179112301       2179111303       11.80      0.0250     0.000      0.000      0.0000     0.0000
C_30157          2179112302       2179112301       25.60      0.0250     0.000      0.000      0.0000     0.0000
C_30158          2179112303       2179112302       9.60       0.0250     0.000      0.000      0.0000     0.0000
C_30159          2179112304       2179112303       29.70      0.0250     0.000      0.000      0.0000     0.0000
C_30160          2179112401       2179112304       5.00       0.0250     0.000      0.000      0.0000     0.0000
C_30161          2179112402       2179112401       17.40      0.0250     0.000      0.000      0.0000     0.0000
C_30162          2179112403       2179112402       4.00       0.0160     0.000      0.000      0.0000     0.0000
C_30163          2179112404       2179112403       12.70      0.0160     0.000      0.000      0.0000     0.0000
C_30164          2179112405       2179112404       21.90      0.0250     0.000      0.000      0.0000     0.0000
C_30165          2179112406       2179112405       29.90      0.0250     0.000      0.000      0.0000     0.0000
C_30166          2179112501       2179112406       29.60      0.0250     0.000      0.000      0.0000     0.0000
C_30167          2179112502       2179112501       15.60      0.0250     0.000      0.000      0.0000     0.0000
C_30168          2179112503       2179112502       16.30      0.0250     0.000      0.000      0.0000     0.0000
C_30169          2179112801       2179112802       11.90      0.0250     0.000      0.000      0.0000     0.0000
C_30170          2179112802       2179112804       30.80      0.0250     0.000      0.000      0.0000     0.0000
C_30171          2179112803       2179112801       19.30      0.0250     0.000      0.000      0.0000     0.0000
C_30172          2179112804       2179112805       18.10      0.0250     0.000      0.000      0.0000     0.0000
C_30173          2179112805       2179112806       10.10      0.0250     0.000      0.000      0.0000     0.0000
C_30174          2179112806       2179113801       30.10      0.0160     0.000      0.000      0.0000     0.0000
C_30175          2179112901       2179112902       14.90      0.0250     0.000      0.000      0.0000     0.0000
C_30176          2179112902       2179112905       19.30      0.0250     0.000      0.000      0.0000     0.0000
C_30177          2179112903       2179112904       13.40      0.0250     0.000      0.000      0.0000     0.0000
C_30178          2179112904       2179112907       12.80      0.0250     0.000      0.000      0.0000     0.0000
C_30179          2179112905       2179112906       8.40       0.0250     0.000      0.000      0.0000     0.0000
C_30180          2179112906       2179112903       17.70      0.0250     0.000      0.000      0.0000     0.0000
C_30181          2179112907       2179112908       8.40       0.0250     0.000      0.000      0.0000     0.0000
C_30182          2179112908       2179112803       25.00      0.0250     0.000      0.000      0.0000     0.0000
C_30183          2179113501       2179113504       31.80      0.0250     0.000      0.000      0.0000     0.0000
C_30184          2179113502       2179112503       12.30      0.0250     0.000      0.000      0.0000     0.0000
C_30185          2179113503       2179113501       11.90      0.0250     0.000      0.000      0.0000     0.0000
C_30186          2179113504       2179113502       17.80      0.0250     0.000      0.000      0.0000     0.0000
C_30187          2179113505       2179113503       17.70      0.0250     0.000      0.000      0.0000     0.0000
C_30188          2179113601       2179113505       30.10      0.0250     0.000      0.000      0.0000     0.0000
C_30189          2179113602       2179113601       30.40      0.0250     0.000      0.000      0.0000     0.0000
C_30190          2179113603       2179113602       30.00      0.0250     0.000      0.000      0.0000     0.0000
C_30191          2179113701       2179113704       16.10      0.0250     0.000      0.000      0.0000     0.0000
C_30192          2179113702       2179113701       15.50      0.0250     0.000      0.000      0.0000     0.0000
C_30193          2179113703       2179113603       24.70      0.0250     0.000      0.000      0.0000     0.0000
C_30194          2179113704       2179113703       5.00       0.0250     0.000      0.000      0.0000     0.0000
C_30195          2179113705       2179113707       6.60       0.0250     0.000      0.000      0.0000     0.0000
C_30196          2179113706       2179113702       30.10      0.0250     0.000      0.000      0.0000     0.0000
C_30197          2179113707       2179113708       8.90       0.0250     0.000      0.000      0.0000     0.0000
C_30198          2179113708       2179113706       20.30      0.0250     0.000      0.000      0.0000     0.0000
C_30199          2179113801       2179113802       10.40      0.0250     0.000      0.000      0.0000     0.0000
C_30200          2179113802       2179113705       5.30       0.0250     0.000      0.000      0.0000     0.0000
C_30201          2179121001       2179121002       6.60       0.0250     0.000      0.000      0.0000     0.0000
C_30202          2179121002       2179121005       24.30      0.0250     0.000      0.000      0.0000     0.0000
C_30203          2179121003       2179121004       4.00       0.0250     0.000      0.000      0.0000     0.0000
C_30204          2179121004       2179121001       30.20      0.0250     0.000      0.000      0.0000     0.0000
C_30205          2179121005       2179121006       19.00      0.0250     0.000      0.000      0.0000     0.0000
C_30206          2179121006       2179121007       9.20       0.0250     0.000      0.000      0.0000     0.0000
C_30207          2179121007       2179122001       17.10      0.0250     0.000      0.000      0.0000     0.0000
C_30208          2179121101       2179121102       4.80       0.0160     0.000      0.000      0.0000     0.0000
C_30209          2179121102       2179121106       24.30      0.0250     0.000      0.000      0.0000     0.0000
C_30210          2179121103       2179121101       13.60      0.0250     0.000      0.000      0.0000     0.0000
C_30211          2179121104       2179121103       15.90      0.0250     0.000      0.000      0.0000     0.0000
C_30212          2179121105       2179121104       4.50       0.0250     0.000      0.000      0.0000     0.0000
C_30213          2179121106       2179121003       18.20      0.0250     0.000      0.000      0.0000     0.0000
C_30214          2179121107       2179121105       25.60      0.0250     0.000      0.000      0.0000     0.0000
C_30215          2179121108       2179121107       30.00      0.0250     0.000      0.000      0.0000     0.0000
C_30216          2179121201       2179121108       22.70      0.0250     0.000      0.000      0.0000     0.0000
C_30217          2179121202       2179121201       7.20       0.0250     0.000      0.000      0.0000     0.0000
C_30219          2179121802       2179122701       16.40      0.0250     0.000      0.000      0.0000     0.0000
C_30220          2179122001       2179122002       14.70      0.0250     0.000      0.000      0.0000     0.0000
C_30221          2179122002       2179122003       24.00      0.0250     0.000      0.000      0.0000     0.0000
C_30222          2179122003       2179112901       6.00       0.0250     0.000      0.000      0.0000     0.0000
C_30223          2179122201       2179122202       6.70       0.0160     0.000      0.000      0.0000     0.0000
C_30224          2179122202       2179122203       1.80       0.0250     0.000      0.000      0.0000     0.0000
C_30225          2179122203       2179122205       21.90      0.0250     0.000      0.000      0.0000     0.0000
C_30226          2179122204       2179121202       34.50      0.0250     0.000      0.000      0.0000     0.0000
C_30227          2179122205       2179122207       5.10       0.0250     0.000      0.000      0.0000     0.0000
C_30228          2179122206       2179122204       25.50      0.0250     0.000      0.000      0.0000     0.0000
C_30229          2179122207       2179122206       3.90       0.0250     0.000      0.000      0.0000     0.0000
C_30230          2179122301       2179122303       5.70       0.0250     0.000      0.000      0.0000     0.0000
C_30231          2179122302       2179122301       18.20      0.0250     0.000      0.000      0.0000     0.0000
C_30232          2179122303       2179122201       21.70      0.0250     0.000      0.000      0.0000     0.0000
C_30233          2179122304       2179122302       6.20       0.0250     0.000      0.000      0.0000     0.0000
C_30234          2179122305       2179122304       19.30      0.0250     0.000      0.000      0.0000     0.0000
C_30235          2179122306       2179122305       10.50      0.0250     0.000      0.000      0.0000     0.0000
C_30236          2179122307       2179122306       14.90      0.0250     0.000      0.000      0.0000     0.0000
C_30237          2179122308       2179122307       10.60      0.0250     0.000      0.000      0.0000     0.0000
C_30238          2179122309       2179122308       5.50       0.0160     0.000      0.000      0.0000     0.0000
C_30239          2179122401       2179122309       29.20      0.0250     0.000      0.000      0.0000     0.0000
C_30240          2179122402       2179122403       16.60      0.0250     0.000      0.000      0.0000     0.0000
C_30241          2179122403       2179122404       3.90       0.0250     0.000      0.029      0.0000     0.0000
C_30242          2179122404       2179122401       17.90      0.0160     0.000      0.000      0.0000     0.0000
C_30243          2179122405       2179122404       3.90       0.0250     0.000      0.000      0.0000     0.0000
C_30244          2179122406       2179122405       10.10      0.0160     0.000      0.000      0.0000     0.0000
C_30245          2179122407       2179122406       10.10      0.0250     0.000      0.000      0.0000     0.0000
C_30246          2179122408       2179122407       34.80      0.0250     0.000      0.000      0.0000     0.0000
C_30247          2179122501       2179122506       41.00      0.0250     0.000      0.000      0.0000     0.0000
C_30248          2179122502       2179122402       51.10      0.0250     0.000      0.000      0.0000     0.0000
C_30249          2179122503       2179122502       9.60       0.0160     0.000      0.000      0.0000     0.0000
C_30250          2179122504       2179122503       36.30      0.0250     0.000      0.000      0.0000     0.0000
C_30251          2179122505       2179122504       6.00       0.0160     0.000      0.000      0.0000     0.0000
C_30252          2179122506       2179122507       4.50       0.0250     0.000      0.000      0.0000     0.0000
C_30253          2179122507       2179122505       4.20       0.0250     0.000      0.000      0.0000     0.0000
C_30254          2179122601       2179122602       10.20      0.0250     0.000      0.000      0.0000     0.0000
C_30255          2179122602       2179122603       12.40      0.0250     0.000      0.000      0.0000     0.0000
C_30256          2179122603       2179122604       13.60      0.0160     0.000      0.000      0.0000     0.0000
C_30257          2179122604       2179122605       4.30       0.0160     0.000      0.000      0.0000     0.0000
C_30258          2179122605       2179122606       14.40      0.0250     0.000      0.000      0.0000     0.0000
C_30259          2179122606       2179122607       5.40       0.0250     0.000      0.000      0.0000     0.0000
C_30260          2179122607       2179122608       5.70       0.0250     0.000      0.000      0.0000     0.0000
C_30261          2179122608       2179122501       66.90      0.0250     0.000      0.000      0.0000     0.0000
C_30262          2179122701       2179122702       50.00      0.0250     0.000      0.000      0.0000     0.0000
C_30263          2179122702       2179122703       10.50      0.0160     0.000      0.000      0.0000     0.0000
C_30264          2179122703       2179122704       34.90      0.0250     0.000      0.000      0.0000     0.0000
C_30265          2179122704       2179122601       16.20      0.0250     0.000      0.000      0.0000     0.0000
C_30277          2179123401       2179122408       13.00      0.0250     0.000      0.000      0.0000     0.0000
C_30278          2179123402       2179123401       12.40      0.0250     0.000      0.000      0.0000     0.0000
C_30279          2179123403       2179123402       35.80      0.0250     0.000      0.000      0.0000     0.0000
C_30280          2179123404       2179123406       11.10      0.0250     0.000      0.000      0.0000     0.0000
C_30281          2179123405       2179123404       11.00      0.0250     0.000      0.000      0.0000     0.0000
C_30282          2179123406       2179123403       10.30      0.0250     0.000      0.000      0.0000     0.0000
C_30283          2179123501       2179123505       15.10      0.0250     0.000      0.000      0.0000     0.0000
C_30284          2179123502       2179123501       8.10       0.0250     0.000      0.000      0.0000     0.0000
C_30285          2179123503       2179123405       20.00      0.0250     0.000      0.000      0.0000     0.0000
C_30286          2179123504       2179123502       8.30       0.0250     0.000      0.000      0.0000     0.0000
C_30287          2179123505       2179123507       10.00      0.0250     0.000      0.000      0.0000     0.0000
C_30288          2179123506       2179123503       18.80      0.0250     0.000      0.000      0.0000     0.0000
C_30289          2179123507       2179123508       4.40       0.0250     0.000      0.000      0.0000     0.0000
C_30290          2179123508       2179123509       4.10       0.0250     0.000      0.000      0.0000     0.0000
C_30291          2179123509       2179123506       7.20       0.0160     0.000      0.000      0.0000     0.0000
C_30292          2179123510       2179123504       16.70      0.0250     0.000      0.000      0.0000     0.0000
C_30293          2179123511       2179123510       5.90       0.0250     0.000      0.000      0.0000     0.0000
C_30294          2179123601       2179123511       22.20      0.0250     0.000      0.000      0.0000     0.0000
C_30295          2179123602       2179123601       7.80       0.0250     0.000      0.000      0.0000     0.0000
C_30296          2179123603       2179123602       17.90      0.0250     0.000      0.000      0.0000     0.0000
C_30297          2179123604       2179123603       2.10       0.0250     0.000      0.000      0.0000     0.0000
C_30298          2179123605       2179123604       1.10       0.0250     0.000      0.000      0.0000     0.0000
C_30299          2179123606       2179123609       19.30      0.0250     0.000      0.000      0.0000     0.0000
C_30300          2179123607       2179123606       3.40       0.0250     0.000      0.000      0.0000     0.0000
C_30301          2179123608       2179123605       16.90      0.0250     0.000      0.000      0.0000     0.0000
C_30302          2179123609       2179124602       6.60       0.0250     0.000      0.000      0.0000     0.0000
C_30303          2179124601       2179123607       9.80       0.0250     0.000      0.000      0.0000     0.0000
C_30304          2179124602       2179123608       13.10      0.0250     0.000      0.000      0.0000     0.0000
C_30305          2179124603       2179124601       11.90      0.0250     0.000      0.000      0.0000     0.0000
C_30306          2179124604       2179124603       21.70      0.0250     0.000      0.000      0.0000     0.0000
C_30307          2179124605       2179124604       20.30      0.0250     0.000      0.000      0.0000     0.0000
C_30308          2179124701       2179124605       2.40       0.0250     0.000      0.000      0.0000     0.0000
C_30309          2179124702       2179124704       30.30      0.0250     0.000      0.000      0.0000     0.0000
C_30310          2179124703       2179124701       11.90      0.0160     0.000      0.000      0.0000     0.0000
C_30311          2179124704       2179124705       15.50      0.0250     0.000      0.000      0.0000     0.0000
C_30312          2179124705       2179124706       15.40      0.0250     0.000      0.000      0.0000     0.0000
C_30313          2179124706       2179124703       9.20       0.0250     0.000      0.000      0.0000     0.0000
C_30314          2179124801       2179124803       11.20      0.0250     0.000      0.000      0.0000     0.0000
C_30315          2179124802       2179124801       10.60      0.0250     0.000      0.000      0.0000     0.0000
C_30316          2179124803       2179124702       29.70      0.0250     0.000      0.000      0.0000     0.0000
C_30317          2179124804       2179124806       20.10      0.0250     0.000      0.000      0.0000     0.0000
C_30318          2179124805       2179124802       15.90      0.0250     0.000      0.000      0.0000     0.0000
C_30319          2179124806       2179124805       11.10      0.0250     0.000      0.000      0.0000     0.0000
C_30320          2179124807       2179124804       19.60      0.0250     0.000      0.000      0.0000     0.0000
C_30321          2179124808       2179124807       10.70      0.0250     0.000      0.000      0.0000     0.0000
C_30322          2179124901       2179124808       33.00      0.0250     0.000      0.000      0.0000     0.0000
C_30323          2179124902       2179124901       24.50      0.0250     0.000      0.000      0.0000     0.0000
C_30324          2179124903       2179124904       5.70       0.0250     0.000      0.000      0.0000     0.0000
C_30325          2179124904       2179124905       20.20      0.0160     0.000      0.000      0.0000     0.0000
C_30326          2179124905       2179124902       9.20       0.0250     0.000      0.000      0.0000     0.0000
C_30327          2179130501       2178139601       86.40      0.0160     0.000      0.000      0.0000     0.0000
C_30328          2179130601       2179130501       34.60      0.0160     0.000      0.000      0.0000     0.0000
C_30329          2179130602       2179130601       35.80      0.0160     0.000      0.000      0.0000     0.0000
C_30334          2179134001       2179134003       18.60      0.0250     0.000      0.000      0.0000     0.0000
C_30335          2179134002       2179134001       8.00       0.0250     0.000      0.000      0.0000     0.0000
C_30336          2179134003       2179134004       10.40      0.0250     0.000      0.000      0.0000     0.0000
C_30337          2179134004       2179134005       26.80      0.0250     0.000      0.000      0.0000     0.0000
C_30338          2179134005       2179134006       30.30      0.0250     0.000      0.000      0.0000     0.0000
C_30339          2179134006       2179124903       29.60      0.0250     0.000      0.000      0.0000     0.0000
C_30340          2179134101       2179134102       28.50      0.0250     0.000      0.000      0.0000     0.0000
C_30341          2179134102       2179134002       22.30      0.0250     0.000      0.000      0.0000     0.0000
C_30342          2179134103       2179134101       9.10       0.0250     0.000      0.000      0.0000     0.0000
C_30343          2179134104       2179134103       21.50      0.0250     0.000      0.000      0.0000     0.0000
C_30344          2179134201       2179134104       31.00      0.0250     0.000      0.000      0.0000     0.0000
C_30345          2179134202       2179134201       25.80      0.0250     0.000      0.000      0.0000     0.0000
C_30346          2179135201       2179134202       19.90      0.0250     0.000      0.000      0.0000     0.0000
C_30347          2179135202       2179135201       15.90      0.0250     0.000      0.000      0.0000     0.0000
C_30348          2179135203       2179135202       23.80      0.0250     0.000      0.000      0.0000     0.0000
C_30349          2179135204       2179135203       29.80      0.0250     0.000      0.000      0.0000     0.0000
C_30350          2179135301       2179135204       17.00      0.0250     0.000      0.000      0.0000     0.0000
C_30351          2179135302       2179135301       12.80      0.0250     0.000      0.000      0.0000     0.0000
C_30352          2179135303       2179135302       29.80      0.0250     0.000      0.000      0.0000     0.0000
C_30353          2179135304       2179135303       30.00      0.0250     0.000      0.000      0.0000     0.0000
C_30354          2179135305       2179135306       19.60      0.0250     0.000      0.000      0.0000     0.0000
C_30355          2179135306       2179135304       9.80       0.0250     0.000      0.000      0.0000     0.0000
C_30356          2179135401       2179135305       9.50       0.0250     0.000      0.000      0.0000     0.0000
C_30357          2179140701       2178149701       94.30      0.0160     0.000      0.000      0.0000     0.0000
C_30358          2179141601       2179141701       62.00      0.0160     0.000      0.000      0.0000     0.0000
C_30359          2179141701       2179140701       102.60     0.0160     0.000      0.000      0.0000     0.0000
C_30360          2179155101       2179156301       169.00     0.0160     0.000      0.000      0.0000     0.0000
C_30361          2179156301       2179156401       91.40      0.0160     0.000      0.000      0.0000     0.0000
C_30362          2179156401       2179155401       86.00      0.0160     0.000      0.000      0.0000     0.0000
C_30363          2179157101       2179155101       127.50     0.0160     0.000      0.000      0.0000     0.0000
C_30364          2179158201       2179157101       142.30     0.0160     0.000      0.000      0.0000     0.0000
C_30678          2180090901       2180090902       30.10      0.0250     0.000      0.000      0.0000     0.0000
C_30679          2180090902       2180090903       32.20      0.0250     0.000      0.000      0.0000     0.0000
C_30680          2180090903       2180091901       30.30      0.0250     0.000      0.000      0.0000     0.0000
C_30691          2180091501       2180091502       99.30      0.0250     0.000      0.000      0.0000     0.0000
C_30692          2180091502       2180092401       72.20      0.0250     0.000      0.000      0.0000     0.0000
C_30693          2180091601       2180091602       25.30      0.0250     0.000      0.050      0.0000     0.0000
C_30694          2180091602       2180091501       73.60      0.0250     0.000      0.000      0.0000     0.0000
C_30695          2180091701       2180091702       12.80      0.0250     0.000      0.000      0.0000     0.0000
C_30696          2180091702       2180091704       30.20      0.0250     0.000      0.000      0.0000     0.0000
C_30697          2180091703       2180091701       17.80      0.0250     0.000      0.000      0.0000     0.0000
C_30698          2180091704       2180091601       29.90      0.0250     0.000      0.000      0.0000     0.0000
C_30699          2180091801       2180091703       30.00      0.0250     0.000      0.000      0.0000     0.0000
C_30700          2180091802       2180091801       37.70      0.0250     0.000      0.000      0.0000     0.0000
C_30701          2180091803       2180091802       25.50      0.0250     0.000      0.000      0.0000     0.0000
C_30702          2180091804       2180091803       29.80      0.0250     0.000      0.000      0.0000     0.0000
C_30703          2180091901       2180091902       27.30      0.0250     0.000      0.000      0.0000     0.0000
C_30704          2180091902       2180091903       35.20      0.0250     0.000      0.000      0.0000     0.0000
C_30705          2180091903       2180091804       23.10      0.0250     0.000      0.000      0.0000     0.0000
C_30714          2180092401       2180093301       139.90     0.0250     0.000      0.300      0.0000     0.0000
C_30720          2180093301       2180094301       126.20     0.0250     0.000      0.000      0.0000     0.0000
C_30724          2180094301       2180096401       200.90     0.0250     0.000      0.000      0.0000     0.0000
C_30735          2180096401       2180098501       230.80     0.0250     0.000      0.000      0.0000     0.0000
C_30750          2180098501       2180099502       80.10      0.0250     0.000      0.000      0.0000     0.0000
C_30755          2180099502       2181090601       129.70     0.0250     0.000      0.000      0.0000     0.0000
C_30948          2180119907       2180119909       20.30      0.0250     0.000      0.000      0.0000     0.0000
C_30950          2180119909       2180119910       13.20      0.0250     0.000      0.000      0.0000     0.0000
C_30952          2180119910       2181111701       263.20     0.0250     0.000      0.000      0.0000     0.0000
C_31053          2180128201       2180128202       9.90       0.0250     0.000      0.000      0.0000     0.0000
C_31054          2180128202       2180129201       30.20      0.0250     0.000      0.000      0.0000     0.0000
C_31055          2180128203       2180128201       14.70      0.0250     0.000      0.000      0.0000     0.0000
C_31056          2180128204       2180128203       18.70      0.0250     0.000      0.000      0.0000     0.0000
C_31066          2180128901       2180138001       67.10      0.0160     0.000      0.000      0.0000     0.0000
C_31067          2180129001       2180129002       20.50      0.0250     0.000      0.000      0.0000     0.0000
C_31068          2180129002       2180129003       29.70      0.0250     0.000      0.000      0.0000     0.0000
C_31069          2180129003       2180119907       39.60      0.0250     0.000      0.000      0.0000     0.0000
C_31070          2180129101       2180129102       9.00       0.0250     0.000      0.000      0.0000     0.0000
C_31071          2180129102       2180129105       21.50      0.0250     0.000      0.000      0.0000     0.0000
C_31072          2180129103       2180129001       23.70      0.0250     0.000      0.000      0.0000     0.0000
C_31073          2180129104       2180129103       15.20      0.0250     0.000      0.000      0.0000     0.0000
C_31074          2180129105       2180129104       30.00      0.0250     0.000      0.000      0.0000     0.0000
C_31075          2180129201       2180129202       23.50      0.0250     0.000      0.000      0.0000     0.0000
C_31076          2180129202       2180129101       37.80      0.0250     0.000      0.000      0.0000     0.0000
C_31077          2180129301       2180128204       14.30      0.0250     0.000      0.000      0.0000     0.0000
C_31078          2180129302       2180129301       32.00      0.0250     0.000      0.000      0.0000     0.0000
C_31082          2180129306       2180129302       27.90      0.0250     0.000      0.000      0.0000     0.0000
C_31084          2180129308       2180129306       5.80       0.0250     0.000      0.000      0.0000     0.0000
C_31085          2180129309       2180129308       22.80      0.0250     0.000      0.000      0.0000     0.0000
C_31086          2180129310       2180129309       20.50      0.0250     0.000      0.000      0.0000     0.0000
C_31087          2180129801       2180129803       26.80      0.0250     0.000      0.000      0.0000     0.0000
C_31088          2180129802       2180129801       29.50      0.0250     0.000      0.000      0.0000     0.0000
C_31089          2180129803       2181120801       21.10      0.0250     0.000      0.000      0.0000     0.0000
C_31112          2180132307       2180133301       53.60      0.0160     0.000      0.000      0.0000     0.0000
C_31113          2180132401       2180132307       29.10      0.0250     0.000      0.000      0.0000     0.0000
C_31114          2180132501       2180132502       61.20      0.0250     0.000      0.000      0.0000     0.0000
C_31115          2180132502       2180132503       51.90      0.0250     0.000      0.500      0.0000     0.0000
C_31116          2180132503       2180132504       30.10      0.0250     0.000      0.000      0.0000     0.0000
C_31117          2180132504       2180132401       89.80      0.0250     0.000      0.000      0.0000     0.0000
C_31118          2180133301       2180134201       118.80     0.0160     0.000      0.000      0.0000     0.0000
C_31119          2180134201       2180135101       180.10     0.0160     0.000      0.000      0.0000     0.0000
C_31120          2180135101       2180136001       157.50     0.0160     0.000      0.000      0.0000     0.0000
C_31127          2180136001       2180128901       150.90     0.0160     0.000      0.000      0.0000     0.0000
C_31159          2180138001       2181120903       174.30     0.0160     0.000      0.000      0.0000     0.0000
C_31194          2180140601       2179158201       584.60     0.0160     0.000      0.000      0.0000     0.0000
C_31471          2181090601       2181091801       189.50     0.0250     0.000      0.000      0.0000     0.0000
C_31475          2181091801       2181091901       136.80     0.0250     0.000      0.000      0.0000     0.0000
C_31476          2181091901       2181101103       174.70     0.0250     0.000      0.000      0.0000     0.0000
C_31501          2181101103       2181104401       433.80     0.0250     0.000      0.000      0.0000     0.0000
C_31507          2181104401       2181107401       262.80     0.0250     0.000      0.000      0.0000     0.0000
C_31508          2181107401       2182100401       298.20     0.0250     0.000      0.000      0.0000     0.0000
C_31509          2181107901       2181104401       666.20     0.0250     0.000      0.008      0.0000     0.0000
C_31510          2181107902       2181107901       13.30      0.0250     0.000      0.000      0.0000     0.0000
C_31511          2181111701       2181112501       282.90     0.0250     0.000      0.000      0.0000     0.0000
C_31512          2181112501       2181113501       64.80      0.0250     0.000      0.000      0.0000     0.0000
C_31513          2181113501       2181113503       67.00      0.0160     0.000      0.000      0.0000     0.0000
C_31515          2181113503       2181114401       61.50      0.0250     0.000      0.000      0.0000     0.0000
C_31517          2181114401       2181117102       491.90     0.0250     0.000      0.000      0.0000     0.0000
C_31522          2181117102       2181107902       207.60     0.0250     0.000      0.000      0.0000     0.0000
C_31523          2181120301       2180129310       32.00      0.0250     0.000      0.000      0.0000     0.0000
C_31524          2181120302       2181120301       36.00      0.0250     0.000      0.000      0.0000     0.0000
C_31525          2181120401       2181120302       108.40     0.0250     0.000      0.000      0.0000     0.0000
C_31526          2181120601       2181120602       10.10      0.0250     0.000      0.000      0.0000     0.0000
C_31527          2181120602       2181120603       3.10       0.0250     0.000      0.000      0.0000     0.0000
C_31528          2181120603       2181120604       37.70      0.0160     0.000      0.000      0.0000     0.0000
C_31529          2181120604       2181120401       137.10     0.0250     0.000      0.000      0.0000     0.0000
C_31530          2181120701       2181120703       29.00      0.0250     0.000      0.000      0.0000     0.0000
C_31531          2181120702       2181120704       30.20      0.0250     0.000      0.000      0.0000     0.0000
C_31532          2181120703       2181120702       31.40      0.0250     0.000      0.000      0.0000     0.0000
C_31533          2181120704       2181120601       30.30      0.0250     0.000      0.000      0.0000     0.0000
C_31534          2181120801       2181120802       11.70      0.0250     0.000      0.000      0.0000     0.0000
C_31535          2181120802       2181120701       30.00      0.0250     0.000      0.000      0.0000     0.0000
C_31536          2181120901       2180129802       33.60      0.0250     0.000      0.000      0.0000     0.0000
C_31537          2181120902       2181120901       4.00       0.0250     0.000      0.000      0.0000     0.0000
C_31538          2181120903       2181120902       5.00       0.0160     0.000      0.000      0.0000     0.0000
C_31947          2182096801       2182097501       233.20     0.0250     0.000      0.000      0.0000     0.0000
C_31948          2182097501       2182098301       259.00     0.0250     0.000      0.000      0.0000     0.0000
C_31949          2182098301       2182099001       322.50     0.0250     0.000      0.000      0.0000     0.0000
C_31950          2182099001       2183082601       484.80     0.0250     0.000      0.000      0.0000     0.0000
C_31951          2182100401       2182102301       278.50     0.0250     0.000      0.000      0.0000     0.0000
C_31952          2182102301       2182104101       279.20     0.0250     0.000      0.000      0.0000     0.0000
C_31953          2182104101       2182096801       382.70     0.0250     0.000      0.000      0.0000     0.0000

[XSECTIONS]
;;Link           Shape            Geom1      Geom2      Geom3      Geom4      Barrels    Culvert
C_24749          RECT_OPEN        2.500      2.000      0.0000     0.0000     1         
C_24768          RECT_CLOSED      2.500      3.000      0.0000     0.0000     1         
C_24769          RECT_CLOSED      2.500      3.000      0.0000     0.0000     1         
C_24771          RECT_OPEN        2.600      8.000      0.0000     0.0000     1         
C_24774          RECT_CLOSED      2.500      3.000      0.0000     0.0000     1         
C_24775          RECT_CLOSED      2.500      3.000      0.0000     0.0000     1         
C_24776          RECT_CLOSED      2.500      3.000      0.0000     0.0000     1         
C_24777          RECT_CLOSED      2.500      3.000      0.0000     0.0000     1         
C_24791          RECT_CLOSED      2.300      3.000      0.0000     0.0000     1         
C_24792          CIRCULAR         1.050      1.050      0.0000     0.0000     1         
C_24793          CIRCULAR         1.050      1.050      0.0000     0.0000     1         
C_24795          CIRCULAR         0.510      0.510      0.0000     0.0000     1         
C_24796          CIRCULAR         1.050      1.050      0.0000     0.0000     1         
C_24798          CIRCULAR         1.050      1.050      0.0000     0.0000     1         
C_24799          CIRCULAR         0.510      0.510      0.0000     0.0000     1         
C_24800          CIRCULAR         0.510      0.510      0.0000     0.0000     1         
C_24801          CIRCULAR         0.510      0.510      0.0000     0.0000     1         
C_24802          CIRCULAR         0.450      0.450      0.0000     0.0000     1         
C_24814          CIRCULAR         1.050      1.050      0.0000     0.0000     1         
C_24816          CIRCULAR         1.050      1.050      0.0000     0.0000     1         
C_24817          CIRCULAR         1.050      1.050      0.0000     0.0000     1         
C_24818          CIRCULAR         0.800      0.800      0.0000     0.0000     1         
C_24821          CIRCULAR         0.800      0.800      0.0000     0.0000     1         
C_24829          CIRCULAR         1.050      1.050      0.0000     0.0000     1         
C_24831          CIRCULAR         1.000      1.000      0.0000     0.0000     1         
C_24832          CIRCULAR         1.050      1.050      0.0000     0.0000     1         
C_24833          CIRCULAR         1.000      1.000      0.0000     0.0000     1         
C_24834          CIRCULAR         1.000      1.000      0.0000     0.0000     1         
C_24844          RECT_CLOSED      1.206      2.000      0.0000     0.0000     1         
C_24845          RECT_CLOSED      1.296      2.000      0.0000     0.0000     1         
C_24846          RECT_CLOSED      1.173      2.000      0.0000     0.0000     1         
C_24852          RECT_OPEN        1.339      2.000      0.0000     0.0000     1         
C_24853          RECT_OPEN        1.206      2.000      0.0000     0.0000     1         
C_24854          RECT_OPEN        1.164      2.000      0.0000     0.0000     1         
C_24855          RECT_OPEN        1.515      2.000      0.0000     0.0000     1         
C_24856          RECT_OPEN        2.800      8.000      0.0000     0.0000     1         
C_24857          RECT_OPEN        3.000      8.000      0.0000     0.0000     1         
C_24858          RECT_OPEN        3.100      8.000      0.0000     0.0000     1         
C_24859          RECT_OPEN        3.100      8.000      0.0000     0.0000     1         
C_24860          RECT_OPEN        3.100      8.000      0.0000     0.0000     1         
C_24861          RECT_CLOSED      1.758      3.000      0.0000     0.0000     1         
C_24868          CIRCULAR         0.450      0.450      0.0000     0.0000     1         
C_24869          RECT_CLOSED      1.780      3.000      0.0000     0.0000     1         
C_24870          RECT_OPEN        1.500      3.000      0.0000     0.0000     1         
C_24875          RECT_OPEN        1.500      3.000      0.0000     0.0000     1         
C_24876          RECT_CLOSED      1.500      3.000      0.0000     0.0000     1         
C_24878          RECT_OPEN        1.382      2.000      0.0000     0.0000     1         
C_24879          RECT_CLOSED      1.500      3.000      0.0000     0.0000     1         
C_24880          RECT_CLOSED      2.308      3.500      0.0000     0.0000     1         
C_24881          RECT_CLOSED      2.308      5.000      0.0000     0.0000     1         
C_24882          RECT_CLOSED      2.274      3.500      0.0000     0.0000     1         
C_24883          RECT_CLOSED      2.129      3.500      0.0000     0.0000     1         
C_24884          RECT_CLOSED      1.500      3.000      0.0000     0.0000     1         
C_24885          RECT_CLOSED      2.971      5.000      0.0000     0.0000     1         
C_24886          RECT_CLOSED      2.923      5.000      0.0000     0.0000     1         
C_24887          RECT_OPEN        1.500      3.000      0.0000     0.0000     1         
C_24888          RECT_OPEN        2.086      3.500      0.0000     0.0000     1         
C_24889          RECT_OPEN        1.500      3.000      0.0000     0.0000     1         
C_24890          RECT_CLOSED      3.337      5.000      0.0000     0.0000     1         
C_24891          RECT_OPEN        1.892      3.500      0.0000     0.0000     1         
C_24892          RECT_CLOSED      3.105      5.000      0.0000     0.0000     1         
C_24893          RECT_OPEN        2.235      3.500      0.0000     0.0000     1         
C_26433          RECT_OPEN        4.447      55.000     0.0000     0.0000     1         
C_26434          RECT_OPEN        4.397      55.000     0.0000     0.0000     1         
C_26436          RECT_CLOSED      4.000      55.000     0.0000     0.0000     1         
C_26437          RECT_OPEN        4.500      55.000     0.0000     0.0000     1         
C_26439          RECT_OPEN        5.260      55.000     0.0000     0.0000     1         
C_26440          RECT_OPEN        5.377      55.000     0.0000     0.0000     1         
C_26504          RECT_OPEN        4.338      55.000     0.0000     0.0000     1         
C_26518          RECT_OPEN        4.246      55.000     0.0000     0.0000     1         
C_26520          RECT_OPEN        4.160      55.000     0.0000     0.0000     1         
C_26524          RECT_OPEN        4.095      55.000     0.0000     0.0000     1         
C_26535          RECT_OPEN        4.060      55.000     0.0000     0.0000     1         
C_26536          RECT_CLOSED      4.010      50.000     0.0000     0.0000     1         
C_26539          RECT_OPEN        4.000      50.000     0.0000     0.0000     1         
C_26633          RECT_OPEN        3.794      50.000     0.0000     0.0000     1         
C_26636          RECT_OPEN        3.649      50.000     0.0000     0.0000     1         
C_26637          RECT_OPEN        3.706      50.000     0.0000     0.0000     1         
C_26646          RECT_OPEN        1.160      2.000      0.0000     0.0000     1         
C_26647          RECT_CLOSED      1.247      4.000      0.0000     0.0000     1         
C_26648          RECT_OPEN        1.249      4.000      0.0000     0.0000     1         
C_26649          RECT_CLOSED      1.800      2.000      0.0000     0.0000     1         
C_26650          RECT_CLOSED      1.800      2.000      0.0000     0.0000     1         
C_26651          RECT_OPEN        1.143      4.221      0.0000     0.0000     1         
C_26652          RECT_CLOSED      1.800      2.000      0.0000     0.0000     1         
C_26653          RECT_CLOSED      1.800      2.000      0.0000     0.0000     1         
C_26659          RECT_OPEN        1.100      4.145      0.0000     0.0000     1         
C_26660          RECT_OPEN        1.100      4.190      0.0000     0.0000     1         
C_26661          RECT_CLOSED      1.534      5.300      0.0000     0.0000     1         
C_26662          RECT_OPEN        1.627      5.300      0.0000     0.0000     1         
C_26663          RECT_CLOSED      1.800      2.000      0.0000     0.0000     1         
C_26664          RECT_OPEN        1.360      1.922      0.0000     0.0000     1         
C_26665          RECT_CLOSED      1.800      2.000      0.0000     0.0000     1         
C_26668          RECT_OPEN        2.250      4.000      0.0000     0.0000     1         
C_26669          RECT_OPEN        1.354      1.790      0.0000     0.0000     1         
C_26670          RECT_OPEN        1.361      1.928      0.0000     0.0000     1         
C_26671          RECT_OPEN        1.537      1.809      0.0000     0.0000     1         
C_26672          RECT_CLOSED      1.800      2.000      0.0000     0.0000     1         
C_26675          RECT_CLOSED      2.320      4.000      0.0000     0.0000     1         
C_26676          RECT_OPEN        2.296      4.000      0.0000     0.0000     1         
C_26677          RECT_OPEN        2.318      4.000      0.0000     0.0000     1         
C_26678          RECT_OPEN        2.343      4.000      0.0000     0.0000     1         
C_26679          RECT_OPEN        1.057      1.967      0.0000     0.0000     1         
C_26680          RECT_OPEN        1.264      2.082      0.0000     0.0000     1         
C_26681          RECT_CLOSED      1.800      2.500      0.0000     0.0000     1         
C_26682          RECT_OPEN        1.411      2.000      0.0000     0.0000     1         
C_26683          RECT_CLOSED      1.000      1.500      0.0000     0.0000     1         
C_26684          RECT_OPEN        2.028      2.296      0.0000     0.0000     1         
C_26685          RECT_CLOSED      1.000      1.500      0.0000     0.0000     1         
C_26686          RECT_CLOSED      1.000      1.500      0.0000     0.0000     1         
C_26689          RECT_OPEN        2.371      4.000      0.0000     0.0000     1         
C_26690          RECT_OPEN        2.399      4.000      0.0000     0.0000     1         
C_26691          RECT_CLOSED      1.800      2.500      0.0000     0.0000     1         
C_26692          RECT_OPEN        1.684      2.036      0.0000     0.0000     1         
C_26693          RECT_OPEN        1.821      2.134      0.0000     0.0000     1         
C_26694          RECT_CLOSED      1.800      2.500      0.0000     0.0000     1         
C_26698          RECT_OPEN        2.412      4.000      0.0000     0.0000     1         
C_26699          RECT_OPEN        2.427      4.000      0.0000     0.0000     1         
C_26700          RECT_OPEN        2.459      4.000      0.0000     0.0000     1         
C_26701          RECT_OPEN        1.435      2.076      0.0000     0.0000     1         
C_26702          RECT_OPEN        1.342      2.145      0.0000     0.0000     1         
C_26703          RECT_OPEN        1.148      1.610      0.0000     0.0000     1         
C_26704          RECT_CLOSED      1.800      2.500      0.0000     0.0000     1         
C_26705          RECT_CLOSED      1.800      2.500      0.0000     0.0000     1         
C_26706          RECT_OPEN        1.555      2.777      0.0000     0.0000     1         
C_26709          RECT_OPEN        2.593      4.000      0.0000     0.0000     1         
C_26710          RECT_OPEN        2.850      13.000     0.0000     0.0000     1         
C_26711          RECT_CLOSED      2.382      13.000     0.0000     0.0000     1         
C_26713          RECT_OPEN        2.560      13.000     0.0000     0.0000     1         
C_26714          RECT_OPEN        3.706      27.000     0.0000     0.0000     1         
C_26715          RECT_OPEN        2.470      4.000      0.0000     0.0000     1         
C_26716          RECT_OPEN        3.634      27.000     0.0000     0.0000     1         
C_26717          RECT_OPEN        3.928      27.000     0.0000     0.0000     1         
C_26718          RECT_OPEN        3.761      27.000     0.0000     0.0000     1         
C_26719          RECT_OPEN        3.706      27.000     0.0000     0.0000     1         
C_26720          RECT_OPEN        3.910      27.000     0.0000     0.0000     1         
C_26721          RECT_OPEN        3.953      27.000     0.0000     0.0000     1         
C_26722          RECT_OPEN        3.997      27.000     0.0000     0.0000     1         
C_26723          RECT_OPEN        3.592      27.000     0.0000     0.0000     1         
C_26724          RECT_OPEN        3.689      27.000     0.0000     0.0000     1         
C_26725          RECT_OPEN        3.555      27.000     0.0000     0.0000     1         
C_26726          RECT_OPEN        3.592      27.000     0.0000     0.0000     1         
C_26727          RECT_OPEN        1.162      2.000      0.0000     0.0000     1         
C_26728          RECT_CLOSED      1.800      2.500      0.0000     0.0000     1         
C_26729          RECT_OPEN        1.150      3.000      0.0000     0.0000     1         
C_26730          RECT_OPEN        2.832      22.500     0.0000     0.0000     1         
C_26731          RECT_OPEN        2.802      22.500     0.0000     0.0000     1         
C_26732          RECT_CLOSED      4.352      22.500     0.0000     0.0000     1         
C_26734          RECT_OPEN        3.256      27.000     0.0000     0.0000     1         
C_26735          RECT_OPEN        3.285      32.000     0.0000     0.0000     1         
C_26736          RECT_OPEN        3.349      35.000     0.0000     0.0000     1         
C_26737          RECT_OPEN        3.235      27.000     0.0000     0.0000     1         
C_26739          RECT_OPEN        3.648      27.000     0.0000     0.0000     1         
C_26740          RECT_OPEN        2.918      22.500     0.0000     0.0000     1         
C_26741          RECT_CLOSED      3.989      23.000     0.0000     0.0000     1         
C_26742          RECT_OPEN        4.350      22.500     0.0000     0.0000     1         
C_26743          RECT_OPEN        4.022      22.500     0.0000     0.0000     1         
C_26744          RECT_OPEN        4.365      22.500     0.0000     0.0000     1         
C_26745          RECT_OPEN        3.589      43.000     0.0000     0.0000     1         
C_26746          RECT_OPEN        3.545      38.500     0.0000     0.0000     1         
C_26747          RECT_OPEN        3.526      35.000     0.0000     0.0000     1         
C_26748          RECT_OPEN        3.500      35.000     0.0000     0.0000     1         
C_26749          RECT_OPEN        3.466      32.000     0.0000     0.0000     1         
C_26753          RECT_OPEN        3.638      46.000     0.0000     0.0000     1         
C_26757          RECT_OPEN        1.913      3.500      0.0000     0.0000     1         
C_26758          RECT_OPEN        1.676      3.500      0.0000     0.0000     1         
C_26759          RECT_CLOSED      1.500      3.000      0.0000     0.0000     1         
C_26760          RECT_OPEN        1.999      3.500      0.0000     0.0000     1         
C_26761          RECT_CLOSED      2.639      5.000      0.0000     0.0000     1         
C_26763          RECT_CLOSED      1.500      1.500      0.0000     0.0000     1         
C_26764          RECT_CLOSED      1.500      1.500      0.0000     0.0000     1         
C_26765          RECT_CLOSED      1.800      2.000      0.0000     0.0000     1         
C_26766          RECT_OPEN        1.676      3.500      0.0000     0.0000     1         
C_26768          RECT_CLOSED      2.268      5.000      0.0000     0.0000     1         
C_26769          RECT_CLOSED      2.310      3.000      0.0000     0.0000     1         
C_26770          RECT_OPEN        1.474      3.500      0.0000     0.0000     1         
C_26771          RECT_OPEN        1.542      3.500      0.0000     0.0000     1         
C_26772          RECT_CLOSED      2.844      3.000      0.0000     0.0000     1         
C_26773          RECT_OPEN        1.132      3.500      0.0000     0.0000     1         
C_26774          RECT_CLOSED      1.000      1.500      0.0000     0.0000     1         
C_26775          RECT_OPEN        2.932      22.500     0.0000     0.0000     1         
C_26776          RECT_OPEN        3.804      22.500     0.0000     0.0000     1         
C_26777          RECT_OPEN        3.012      22.500     0.0000     0.0000     1         
C_26778          RECT_CLOSED      3.799      22.500     0.0000     0.0000     1         
C_26779          RECT_OPEN        2.633      22.500     0.0000     0.0000     1         
C_26780          RECT_OPEN        2.655      22.500     0.0000     0.0000     1         
C_26781          RECT_OPEN        2.713      22.500     0.0000     0.0000     1         
C_26782          RECT_OPEN        2.734      22.500     0.0000     0.0000     1         
C_26783          RECT_OPEN        2.374      22.500     0.0000     0.0000     1         
C_26784          RECT_OPEN        2.764      22.500     0.0000     0.0000     1         
C_26785          RECT_OPEN        2.569      22.500     0.0000     0.0000     1         
C_26786          RECT_OPEN        2.734      22.500     0.0000     0.0000     1         
C_26787          RECT_OPEN        3.013      22.500     0.0000     0.0000     1         
C_26788          RECT_OPEN        2.692      22.500     0.0000     0.0000     1         
C_26789          RECT_OPEN        2.891      22.500     0.0000     0.0000     1         
C_26790          RECT_OPEN        2.720      22.500     0.0000     0.0000     1         
C_26791          RECT_CLOSED      2.000      2.000      0.0000     0.0000     1         
C_26792          RECT_CLOSED      2.100      2.850      0.0000     0.0000     1         
C_26793          RECT_OPEN        2.398      22.500     0.0000     0.0000     1         
C_26794          RECT_OPEN        2.437      22.500     0.0000     0.0000     1         
C_26795          RECT_OPEN        2.236      22.500     0.0000     0.0000     1         
C_26796          RECT_OPEN        2.645      22.500     0.0000     0.0000     1         
C_26797          RECT_CLOSED      2.000      2.000      0.0000     0.0000     1         
C_26798          RECT_CLOSED      2.100      2.850      0.0000     0.0000     1         
C_26799          RECT_OPEN        2.434      22.500     0.0000     0.0000     1         
C_26800          RECT_OPEN        2.323      22.500     0.0000     0.0000     1         
C_26801          RECT_OPEN        2.901      22.500     0.0000     0.0000     1         
C_26802          RECT_OPEN        2.480      22.500     0.0000     0.0000     1         
C_26803          RECT_OPEN        2.659      22.500     0.0000     0.0000     1         
C_26804          RECT_OPEN        1.500      5.200      0.0000     0.0000     1         
C_26805          RECT_OPEN        1.500      5.200      0.0000     0.0000     1         
C_26806          RECT_OPEN        1.500      5.200      0.0000     0.0000     1         
C_26807          RECT_OPEN        1.500      5.200      0.0000     0.0000     1         
C_26808          RECT_OPEN        1.500      5.200      0.0000     0.0000     1         
C_26809          RECT_OPEN        2.288      4.016      0.0000     0.0000     1         
C_26810          RECT_OPEN        2.450      4.137      0.0000     0.0000     1         
C_26811          RECT_OPEN        2.949      22.500     0.0000     0.0000     1         
C_26812          RECT_CLOSED      2.378      22.500     0.0000     0.0000     1         
C_26813          RECT_OPEN        1.500      5.200      0.0000     0.0000     1         
C_26814          RECT_OPEN        2.826      22.500     0.0000     0.0000     1         
C_26815          RECT_OPEN        2.720      15.000     0.0000     0.0000     1         
C_26816          RECT_OPEN        2.617      15.000     0.0000     0.0000     1         
C_26817          RECT_OPEN        2.326      3.848      0.0000     0.0000     1         
C_26818          RECT_OPEN        2.530      15.000     0.0000     0.0000     1         
C_26819          RECT_OPEN        1.500      5.200      0.0000     0.0000     1         
C_26820          RECT_CLOSED      2.616      5.000      0.0000     0.0000     1         
C_26821          RECT_CLOSED      2.154      5.000      0.0000     0.0000     1         
C_26822          RECT_CLOSED      1.500      3.000      0.0000     0.0000     1         
C_26823          RECT_CLOSED      1.500      3.000      0.0000     0.0000     1         
C_26824          RECT_CLOSED      3.012      3.000      0.0000     0.0000     1         
C_26825          RECT_OPEN        0.895      3.500      0.0000     0.0000     1         
C_26827          RECT_CLOSED      3.218      3.000      0.0000     0.0000     1         
C_26829          RECT_CLOSED      2.083      5.000      0.0000     0.0000     1         
C_26830          RECT_CLOSED      1.923      5.000      0.0000     0.0000     1         
C_26831          RECT_CLOSED      1.907      5.000      0.0000     0.0000     1         
C_26832          RECT_CLOSED      1.500      3.000      0.0000     0.0000     1         
C_26833          RECT_CLOSED      1.956      5.000      0.0000     0.0000     1         
C_26834          RECT_CLOSED      1.766      5.000      0.0000     0.0000     1         
C_26835          RECT_CLOSED      1.500      1.500      0.0000     0.0000     1         
C_26836          RECT_CLOSED      1.500      1.500      0.0000     0.0000     1         
C_26837          RECT_CLOSED      1.500      1.500      0.0000     0.0000     1         
C_26838          RECT_CLOSED      1.500      1.500      0.0000     0.0000     1         
C_26839          RECT_OPEN        1.199      3.500      0.0000     0.0000     1         
C_26840          RECT_CLOSED      4.113      3.000      0.0000     0.0000     1         
C_26841          RECT_CLOSED      4.470      3.000      0.0000     0.0000     1         
C_26842          RECT_CLOSED      2.107      3.000      0.0000     0.0000     1         
C_26843          RECT_CLOSED      2.426      3.000      0.0000     0.0000     1         
C_26844          RECT_CLOSED      3.037      3.000      0.0000     0.0000     1         
C_26845          RECT_CLOSED      1.500      1.500      0.0000     0.0000     1         
C_26846          RECT_CLOSED      1.620      5.000      0.0000     0.0000     1         
C_26847          RECT_CLOSED      1.500      1.500      0.0000     0.0000     1         
C_26850          RECT_CLOSED      2.085      3.000      0.0000     0.0000     1         
C_26851          RECT_CLOSED      2.194      3.000      0.0000     0.0000     1         
C_26852          RECT_CLOSED      2.105      3.000      0.0000     0.0000     1         
C_26853          RECT_CLOSED      4.190      3.000      0.0000     0.0000     1         
C_26854          RECT_CLOSED      3.112      3.000      0.0000     0.0000     1         
C_26855          RECT_CLOSED      2.495      5.000      0.0000     0.0000     1         
C_26857          RECT_CLOSED      4.480      5.000      0.0000     0.0000     1         
C_26858          RECT_OPEN        1.500      5.200      0.0000     0.0000     1         
C_26859          RECT_CLOSED      1.893      6.500      0.0000     0.0000     1         
C_26860          RECT_CLOSED      1.940      6.500      0.0000     0.0000     1         
C_26864          RECT_OPEN        3.297      10.000     0.0000     0.0000     1         
C_26865          RECT_CLOSED      3.664      5.000      0.0000     0.0000     1         
C_26866          RECT_CLOSED      2.000      2.000      0.0000     0.0000     1         
C_26867          RECT_OPEN        2.393      5.500      0.0000     0.0000     1         
C_26868          RECT_OPEN        2.393      4.500      0.0000     0.0000     1         
C_26869          RECT_OPEN        3.591      4.500      0.0000     0.0000     1         
C_26870          RECT_OPEN        4.832      4.500      0.0000     0.0000     1         
C_26871          RECT_CLOSED      3.241      2.000      0.0000     0.0000     1         
C_26872          RECT_CLOSED      2.724      5.000      0.0000     0.0000     1         
C_26873          RECT_CLOSED      2.000      2.000      0.0000     0.0000     1         
C_26874          RECT_OPEN        2.931      3.000      0.0000     0.0000     1         
C_26875          RECT_OPEN        3.389      3.000      0.0000     0.0000     1         
C_26878          RECT_CLOSED      1.266      5.000      0.0000     0.0000     1         
C_26879          RECT_CLOSED      1.303      5.000      0.0000     0.0000     1         
C_26881          RECT_CLOSED      1.251      5.000      0.0000     0.0000     1         
C_26882          RECT_CLOSED      1.632      2.000      0.0000     0.0000     1         
C_26883          RECT_CLOSED      1.147      5.000      0.0000     0.0000     1         
C_26884          RECT_CLOSED      3.932      2.000      0.0000     0.0000     1         
C_26885          RECT_CLOSED      1.143      5.000      0.0000     0.0000     1         
C_26886          RECT_CLOSED      1.940      5.000      0.0000     0.0000     1         
C_26890          RECT_OPEN        2.846      6.428      0.0000     0.0000     1         
C_26891          RECT_CLOSED      1.730      2.000      0.0000     0.0000     1         
C_26892          RECT_CLOSED      1.711      2.000      0.0000     0.0000     1         
C_26893          RECT_CLOSED      2.000      2.000      0.0000     0.0000     1         
C_26894          RECT_CLOSED      2.000      2.000      0.0000     0.0000     1         
C_26895          RECT_CLOSED      1.498      5.000      0.0000     0.0000     1         
C_26896          RECT_CLOSED      1.629      5.000      0.0000     0.0000     1         
C_26897          RECT_CLOSED      1.827      5.000      0.0000     0.0000     1         
C_26898          RECT_CLOSED      2.000      2.000      0.0000     0.0000     1         
C_26899          RECT_CLOSED      2.000      2.000      0.0000     0.0000     1         
C_26900          RECT_CLOSED      2.901      2.000      0.0000     0.0000     1         
C_26901          RECT_CLOSED      1.414      2.000      0.0000     0.0000     1         
C_26902          RECT_CLOSED      1.511      5.000      0.0000     0.0000     1         
C_26903          RECT_CLOSED      2.000      3.000      0.0000     0.0000     1         
C_26904          RECT_CLOSED      2.000      3.000      0.0000     0.0000     1         
C_26905          RECT_CLOSED      2.000      3.000      0.0000     0.0000     1         
C_26906          RECT_CLOSED      3.988      5.000      0.0000     0.0000     1         
C_26907          RECT_CLOSED      3.598      5.000      0.0000     0.0000     1         
C_26908          RECT_CLOSED      3.308      5.000      0.0000     0.0000     1         
C_26909          RECT_CLOSED      2.000      3.000      0.0000     0.0000     1         
C_26910          RECT_CLOSED      2.000      3.000      0.0000     0.0000     1         
C_26911          RECT_CLOSED      2.000      3.000      0.0000     0.0000     1         
C_26912          RECT_CLOSED      2.000      3.000      0.0000     0.0000     1         
C_26913          RECT_CLOSED      2.000      3.000      0.0000     0.0000     1         
C_26914          RECT_OPEN        2.798      4.000      0.0000     0.0000     1         
C_26915          RECT_OPEN        2.613      4.000      0.0000     0.0000     1         
C_26916          RECT_OPEN        2.499      4.000      0.0000     0.0000     1         
C_26917          RECT_CLOSED      1.998      5.000      0.0000     0.0000     1         
C_26918          RECT_CLOSED      2.234      5.000      0.0000     0.0000     1         
C_26919          RECT_OPEN        2.437      4.000      0.0000     0.0000     1         
C_26920          RECT_OPEN        2.269      3.096      0.0000     0.0000     1         
C_26921          RECT_OPEN        2.382      3.096      0.0000     0.0000     1         
C_26922          RECT_OPEN        2.624      3.096      0.0000     0.0000     1         
C_26923          RECT_OPEN        2.523      4.000      0.0000     0.0000     1         
C_26924          RECT_OPEN        1.500      3.000      0.0000     0.0000     1         
C_26925          RECT_OPEN        1.500      3.000      0.0000     0.0000     1         
C_26926          RECT_OPEN        2.047      3.096      0.0000     0.0000     1         
C_26927          RECT_OPEN        2.153      3.096      0.0000     0.0000     1         
C_26928          RECT_CLOSED      2.279      3.000      0.0000     0.0000     1         
C_26929          RECT_CLOSED      2.158      3.000      0.0000     0.0000     1         
C_26930          RECT_OPEN        1.989      2.911      0.0000     0.0000     1         
C_26967          RECT_OPEN        1.220      5.000      0.0000     0.0000     1         
C_26972          RECT_OPEN        4.387      13.000     0.0000     0.0000     1         
C_26973          RECT_CLOSED      4.378      13.000     0.0000     0.0000     1         
C_26974          RECT_OPEN        4.154      13.000     0.0000     0.0000     1         
C_26975          RECT_CLOSED      1.500      3.000      0.0000     0.0000     1         
C_26976          RECT_CLOSED      1.500      3.000      0.0000     0.0000     1         
C_26977          RECT_OPEN        3.951      13.000     0.0000     0.0000     1         
C_26978          RECT_OPEN        3.258      13.000     0.0000     0.0000     1         
C_26979          RECT_OPEN        2.000      5.000      0.0000     0.0000     1         
C_26980          RECT_CLOSED      2.000      2.500      0.0000     0.0000     1         
C_26981          RECT_CLOSED      2.000      2.500      0.0000     0.0000     1         
C_26982          RECT_CLOSED      2.000      3.000      0.0000     0.0000     1         
C_26988          RECT_CLOSED      0.879      10.000     0.0000     0.0000     1         
C_26989          RECT_OPEN        2.000      3.000      0.0000     0.0000     1         
C_26990          RECT_OPEN        2.000      3.000      0.0000     0.0000     1         
C_27068          RECT_OPEN        4.870      22.000     0.0000     0.0000     1         
C_27069          RECT_OPEN        2.028      2.000      0.0000     0.0000     1         
C_27070          RECT_OPEN        2.000      2.000      0.0000     0.0000     1         
C_27898          RECT_OPEN        3.948      50.000     0.0000     0.0000     1         
C_27901          RECT_OPEN        3.899      50.000     0.0000     0.0000     1         
C_27902          RECT_OPEN        3.840      50.000     0.0000     0.0000     1         
C_28051          RECT_CLOSED      2.100      2.850      0.0000     0.0000     1         
C_28052          RECT_OPEN        1.363      4.300      0.0000     0.0000     1         
C_28053          RECT_OPEN        1.279      4.702      0.0000     0.0000     1         
C_28054          RECT_OPEN        1.307      4.319      0.0000     0.0000     1         
C_28055          RECT_OPEN        1.476      4.341      0.0000     0.0000     1         
C_28056          RECT_OPEN        1.384      4.568      0.0000     0.0000     1         
C_28057          RECT_OPEN        2.045      4.251      0.0000     0.0000     1         
C_28058          RECT_OPEN        1.974      4.000      0.0000     0.0000     1         
C_28059          RECT_OPEN        1.584      4.605      0.0000     0.0000     1         
C_28060          RECT_OPEN        1.428      4.824      0.0000     0.0000     1         
C_28061          RECT_OPEN        2.029      4.263      0.0000     0.0000     1         
C_28062          RECT_OPEN        2.350      15.000     0.0000     0.0000     1         
C_28063          RECT_OPEN        2.090      15.000     0.0000     0.0000     1         
C_28064          RECT_OPEN        2.118      15.000     0.0000     0.0000     1         
C_28071          RECT_OPEN        1.580      4.500      0.0000     0.0000     1         
C_28072          RECT_OPEN        1.027      4.500      0.0000     0.0000     1         
C_28073          RECT_OPEN        1.038      7.609      0.0000     0.0000     1         
C_28074          RECT_OPEN        1.220      4.000      0.0000     0.0000     1         
C_28077          RECT_CLOSED      2.100      2.850      0.0000     0.0000     1         
C_28079          RECT_CLOSED      1.471      7.600      0.0000     0.0000     1         
C_28080          RECT_OPEN        1.938      15.000     0.0000     0.0000     1         
C_28081          RECT_OPEN        1.878      15.000     0.0000     0.0000     1         
C_28082          RECT_OPEN        2.440      15.000     0.0000     0.0000     1         
C_28083          RECT_CLOSED      2.467      15.000     0.0000     0.0000     1         
C_28084          RECT_OPEN        2.068      15.000     0.0000     0.0000     1         
C_28085          RECT_OPEN        2.048      15.000     0.0000     0.0000     1         
C_28087          RECT_OPEN        3.613      4.000      0.0000     0.0000     1         
C_28089          RECT_OPEN        3.785      4.000      0.0000     0.0000     1         
C_28090          RECT_OPEN        2.496      15.000     0.0000     0.0000     1         
C_28091          RECT_OPEN        2.496      15.000     0.0000     0.0000     1         
C_28092          RECT_OPEN        2.176      15.000     0.0000     0.0000     1         
C_28093          RECT_CLOSED      2.477      15.000     0.0000     0.0000     1         
C_28094          RECT_CLOSED      2.364      15.000     0.0000     0.0000     1         
C_28095          RECT_OPEN        2.355      15.000     0.0000     0.0000     1         
C_28096          RECT_OPEN        2.335      15.000     0.0000     0.0000     1         
C_28099          RECT_OPEN        3.566      4.000      0.0000     0.0000     1         
C_28100          RECT_OPEN        3.547      4.000      0.0000     0.0000     1         
C_28101          RECT_OPEN        3.526      4.000      0.0000     0.0000     1         
C_28102          RECT_OPEN        1.994      15.000     0.0000     0.0000     1         
C_28103          RECT_OPEN        2.496      15.000     0.0000     0.0000     1         
C_28104          RECT_OPEN        2.484      15.000     0.0000     0.0000     1         
C_28105          RECT_CLOSED      2.161      15.000     0.0000     0.0000     1         
C_28106          RECT_OPEN        2.403      15.000     0.0000     0.0000     1         
C_28108          RECT_OPEN        3.697      4.000      0.0000     0.0000     1         
C_28111          RECT_OPEN        2.882      4.000      0.0000     0.0000     1         
C_28112          RECT_OPEN        2.448      15.000     0.0000     0.0000     1         
C_28113          RECT_OPEN        2.541      15.000     0.0000     0.0000     1         
C_28114          RECT_OPEN        2.541      15.000     0.0000     0.0000     1         
C_28115          RECT_OPEN        1.982      15.000     0.0000     0.0000     1         
C_28125          RECT_CLOSED      2.239      7.900      0.0000     0.0000     1         
C_28126          RECT_CLOSED      2.238      6.200      0.0000     0.0000     1         
C_28127          RECT_CLOSED      2.083      6.500      0.0000     0.0000     1         
C_28128          RECT_CLOSED      2.038      7.500      0.0000     0.0000     1         
C_28129          RECT_CLOSED      2.144      7.500      0.0000     0.0000     1         
C_28130          RECT_OPEN        2.215      7.900      0.0000     0.0000     1         
C_28131          RECT_OPEN        2.522      5.520      0.0000     0.0000     1         
C_28132          RECT_OPEN        2.253      7.255      0.0000     0.0000     1         
C_28133          RECT_CLOSED      1.890      12.600     0.0000     0.0000     1         
C_28134          RECT_OPEN        2.253      10.000     0.0000     0.0000     1         
C_28138          RECT_OPEN        1.455      10.387     0.0000     0.0000     1         
C_28139          RECT_OPEN        1.648      5.650      0.0000     0.0000     1         
C_28140          RECT_OPEN        2.218      5.650      0.0000     0.0000     1         
C_28141          RECT_OPEN        1.589      10.040     0.0000     0.0000     1         
C_28142          RECT_OPEN        1.810      5.650      0.0000     0.0000     1         
C_28143          RECT_CLOSED      1.269      6.500      0.0000     0.0000     1         
C_28144          RECT_OPEN        1.149      6.500      0.0000     0.0000     1         
C_28145          RECT_OPEN        1.840      5.650      0.0000     0.0000     1         
C_28146          RECT_OPEN        1.099      9.460      0.0000     0.0000     1         
C_28147          RECT_OPEN        1.669      5.650      0.0000     0.0000     1         
C_28148          RECT_OPEN        1.529      9.870      0.0000     0.0000     1         
C_28149          RECT_OPEN        1.629      5.650      0.0000     0.0000     1         
C_28150          RECT_OPEN        1.259      9.720      0.0000     0.0000     1         
C_28151          RECT_OPEN        1.599      9.780      0.0000     0.0000     1         
C_28152          RECT_CLOSED      1.554      6.000      0.0000     0.0000     1         
C_28153          RECT_CLOSED      1.375      6.000      0.0000     0.0000     1         
C_28154          RECT_CLOSED      1.305      4.500      0.0000     0.0000     1         
C_28155          RECT_CLOSED      1.506      4.500      0.0000     0.0000     1         
C_28156          RECT_OPEN        1.568      5.300      0.0000     0.0000     1         
C_28157          RECT_OPEN        1.628      7.433      0.0000     0.0000     1         
C_28158          RECT_OPEN        1.661      7.528      0.0000     0.0000     1         
C_28159          RECT_OPEN        1.182      7.500      0.0000     0.0000     1         
C_28160          RECT_OPEN        1.181      7.692      0.0000     0.0000     1         
C_28161          RECT_OPEN        1.136      7.382      0.0000     0.0000     1         
C_28162          RECT_OPEN        2.265      5.650      0.0000     0.0000     1         
C_28163          RECT_OPEN        2.064      5.650      0.0000     0.0000     1         
C_28164          RECT_OPEN        2.134      5.650      0.0000     0.0000     1         
C_28165          RECT_OPEN        1.589      10.000     0.0000     0.0000     1         
C_28166          RECT_OPEN        2.514      5.650      0.0000     0.0000     1         
C_28167          RECT_OPEN        1.519      10.080     0.0000     0.0000     1         
C_28168          RECT_OPEN        1.517      5.650      0.0000     0.0000     1         
C_28169          RECT_OPEN        1.686      5.650      0.0000     0.0000     1         
C_28170          RECT_OPEN        1.609      10.130     0.0000     0.0000     1         
C_28171          RECT_OPEN        2.156      5.650      0.0000     0.0000     1         
C_28172          RECT_OPEN        1.539      9.800      0.0000     0.0000     1         
C_28173          RECT_OPEN        1.499      9.900      0.0000     0.0000     1         
C_28174          RECT_OPEN        1.599      9.810      0.0000     0.0000     1         
C_28175          RECT_OPEN        2.117      5.650      0.0000     0.0000     1         
C_28176          RECT_OPEN        1.549      10.020     0.0000     0.0000     1         
C_28177          RECT_OPEN        1.669      10.260     0.0000     0.0000     1         
C_28178          RECT_OPEN        1.203      7.938      0.0000     0.0000     1         
C_28179          RECT_OPEN        1.384      7.736      0.0000     0.0000     1         
C_28180          RECT_OPEN        1.518      7.500      0.0000     0.0000     1         
C_28181          RECT_OPEN        1.679      7.500      0.0000     0.0000     1         
C_28182          RECT_OPEN        2.412      5.650      0.0000     0.0000     1         
C_28183          RECT_OPEN        2.111      5.650      0.0000     0.0000     1         
C_28184          RECT_OPEN        1.886      9.500      0.0000     0.0000     1         
C_28185          RECT_OPEN        2.221      5.650      0.0000     0.0000     1         
C_28186          RECT_OPEN        1.707      9.500      0.0000     0.0000     1         
C_28187          RECT_OPEN        2.071      5.650      0.0000     0.0000     1         
C_28188          RECT_OPEN        1.966      10.120     0.0000     0.0000     1         
C_28189          RECT_OPEN        1.975      15.000     0.0000     0.0000     1         
C_28190          RECT_OPEN        2.253      5.650      0.0000     0.0000     1         
C_28191          RECT_OPEN        2.648      5.650      0.0000     0.0000     1         
C_28192          RECT_OPEN        1.629      10.160     0.0000     0.0000     1         
C_28193          RECT_CLOSED      2.368      5.650      0.0000     0.0000     1         
C_28194          RECT_CLOSED      2.179      14.000     0.0000     0.0000     1         
C_28195          RECT_CLOSED      2.212      5.650      0.0000     0.0000     1         
C_28196          RECT_OPEN        2.219      14.000     0.0000     0.0000     1         
C_28197          RECT_OPEN        1.909      9.500      0.0000     0.0000     1         
C_28198          RECT_OPEN        1.529      10.020     0.0000     0.0000     1         
C_28199          RECT_OPEN        1.495      6.081      0.0000     0.0000     1         
C_28200          RECT_OPEN        1.313      7.525      0.0000     0.0000     1         
C_28201          RECT_OPEN        1.401      7.511      0.0000     0.0000     1         
C_28202          RECT_OPEN        1.887      7.461      0.0000     0.0000     1         
C_28203          RECT_OPEN        1.571      7.761      0.0000     0.0000     1         
C_28204          RECT_OPEN        2.282      13.000     0.0000     0.0000     1         
C_28205          RECT_OPEN        2.276      13.000     0.0000     0.0000     1         
C_28206          RECT_OPEN        2.175      13.000     0.0000     0.0000     1         
C_28207          RECT_CLOSED      2.275      13.000     0.0000     0.0000     1         
C_28208          RECT_OPEN        2.473      13.000     0.0000     0.0000     1         
C_28209          RECT_OPEN        2.154      13.000     0.0000     0.0000     1         
C_28210          RECT_OPEN        1.971      13.000     0.0000     0.0000     1         
C_28211          RECT_OPEN        2.188      9.857      0.0000     0.0000     1         
C_28212          RECT_CLOSED      1.932      4.000      0.0000     0.0000     1         
C_28213          RECT_CLOSED      1.932      4.000      0.0000     0.0000     1         
C_28214          RECT_OPEN        1.998      4.000      0.0000     0.0000     1         
C_28215          RECT_OPEN        1.998      4.000      0.0000     0.0000     1         
C_28216          RECT_OPEN        2.295      10.132     0.0000     0.0000     1         
C_28217          RECT_OPEN        2.182      10.127     0.0000     0.0000     1         
C_28218          RECT_OPEN        2.309      10.256     0.0000     0.0000     1         
C_28219          RECT_OPEN        2.481      10.687     0.0000     0.0000     1         
C_28220          RECT_OPEN        2.393      11.396     0.0000     0.0000     1         
C_28221          RECT_OPEN        2.411      10.874     0.0000     0.0000     1         
C_28222          RECT_CLOSED      2.874      10.000     0.0000     0.0000     1         
C_28223          RECT_CLOSED      2.874      10.000     0.0000     0.0000     1         
C_28224          RECT_CLOSED      2.874      10.000     0.0000     0.0000     1         
C_28225          RECT_CLOSED      2.874      10.000     0.0000     0.0000     1         
C_28226          RECT_OPEN        2.875      10.000     0.0000     0.0000     1         
C_28227          RECT_OPEN        2.875      10.000     0.0000     0.0000     1         
C_28228          RECT_OPEN        2.878      10.000     0.0000     0.0000     1         
C_28229          RECT_OPEN        2.878      10.000     0.0000     0.0000     1         
C_28230          RECT_CLOSED      2.679      13.000     0.0000     0.0000     1         
C_28231          RECT_CLOSED      2.679      13.000     0.0000     0.0000     1         
C_28232          RECT_CLOSED      1.803      4.000      0.0000     0.0000     1         
C_28233          RECT_CLOSED      1.803      4.000      0.0000     0.0000     1         
C_28234          RECT_CLOSED      2.854      10.000     0.0000     0.0000     1         
C_28235          RECT_CLOSED      2.854      10.000     0.0000     0.0000     1         
C_28236          RECT_OPEN        2.669      10.000     0.0000     0.0000     1         
C_28237          RECT_OPEN        2.669      10.000     0.0000     0.0000     1         
C_28238          RECT_OPEN        3.778      15.000     0.0000     0.0000     1         
C_28240          RECT_OPEN        2.672      10.000     0.0000     0.0000     1         
C_28241          RECT_OPEN        2.672      10.000     0.0000     0.0000     1         
C_28242          RECT_CLOSED      2.873      10.000     0.0000     0.0000     1         
C_28243          RECT_CLOSED      2.873      10.000     0.0000     0.0000     1         
C_28244          RECT_CLOSED      2.874      10.000     0.0000     0.0000     1         
C_28245          RECT_CLOSED      2.874      10.000     0.0000     0.0000     1         
C_28246          RECT_OPEN        2.308      10.211     0.0000     0.0000     1         
C_28247          RECT_OPEN        2.245      10.389     0.0000     0.0000     1         
C_28248          RECT_OPEN        2.161      13.965     0.0000     0.0000     1         
C_28249          RECT_OPEN        2.139      13.603     0.0000     0.0000     1         
C_28250          RECT_OPEN        2.136      9.957      0.0000     0.0000     1         
C_28251          RECT_OPEN        2.341      10.020     0.0000     0.0000     1         
C_28252          RECT_OPEN        2.341      9.431      0.0000     0.0000     1         
C_28253          RECT_OPEN        2.502      13.000     0.0000     0.0000     1         
C_28254          RECT_OPEN        2.303      13.000     0.0000     0.0000     1         
C_28255          RECT_CLOSED      2.185      13.000     0.0000     0.0000     1         
C_28256          RECT_CLOSED      2.255      13.000     0.0000     0.0000     1         
C_28257          RECT_OPEN        2.308      13.000     0.0000     0.0000     1         
C_28258          RECT_OPEN        2.510      13.000     0.0000     0.0000     1         
C_28259          RECT_CLOSED      2.711      13.000     0.0000     0.0000     1         
C_28260          RECT_OPEN        3.095      13.000     0.0000     0.0000     1         
C_28261          RECT_OPEN        2.693      13.000     0.0000     0.0000     1         
C_28262          RECT_OPEN        2.799      13.000     0.0000     0.0000     1         
C_28263          RECT_OPEN        2.651      13.000     0.0000     0.0000     1         
C_28265          RECT_OPEN        2.283      13.000     0.0000     0.0000     1         
C_28266          RECT_OPEN        2.086      13.000     0.0000     0.0000     1         
C_28267          RECT_OPEN        2.688      13.000     0.0000     0.0000     1         
C_28268          RECT_OPEN        2.087      13.000     0.0000     0.0000     1         
C_28269          RECT_CLOSED      2.730      15.000     0.0000     0.0000     1         
C_28270          RECT_CLOSED      2.730      15.000     0.0000     0.0000     1         
C_28271          RECT_OPEN        2.439      15.000     0.0000     0.0000     1         
C_28272          RECT_OPEN        2.439      15.000     0.0000     0.0000     1         
C_28273          RECT_OPEN        2.129      10.268     0.0000     0.0000     1         
C_28274          RECT_OPEN        1.916      7.384      0.0000     0.0000     1         
C_28275          RECT_CLOSED      2.495      4.500      0.0000     0.0000     1         
C_28276          RECT_CLOSED      2.325      4.500      0.0000     0.0000     1         
C_28277          RECT_CLOSED      2.324      10.500     0.0000     0.0000     1         
C_28278          RECT_OPEN        1.527      12.000     0.0000     0.0000     1         
C_28279          RECT_OPEN        1.521      12.000     0.0000     0.0000     1         
C_28280          RECT_CLOSED      2.494      10.500     0.0000     0.0000     1         
C_28281          RECT_OPEN        2.102      10.378     0.0000     0.0000     1         
C_28282          RECT_OPEN        2.519      10.284     0.0000     0.0000     1         
C_28283          RECT_CLOSED      2.597      13.000     0.0000     0.0000     1         
C_28284          RECT_OPEN        2.341      10.142     0.0000     0.0000     1         
C_28285          RECT_OPEN        2.472      13.000     0.0000     0.0000     1         
C_28286          RECT_OPEN        1.517      7.000      0.0000     0.0000     1         
C_28287          RECT_OPEN        1.231      7.000      0.0000     0.0000     1         
C_28288          RECT_CLOSED      1.215      7.000      0.0000     0.0000     1         
C_28289          RECT_OPEN        1.369      7.000      0.0000     0.0000     1         
C_28290          RECT_OPEN        1.691      7.000      0.0000     0.0000     1         
C_28291          RECT_OPEN        1.597      7.000      0.0000     0.0000     1         
C_28292          RECT_OPEN        1.706      5.000      0.0000     0.0000     1         
C_28293          RECT_OPEN        1.473      5.000      0.0000     0.0000     1         
C_28294          RECT_OPEN        1.389      5.000      0.0000     0.0000     1         
C_28295          RECT_OPEN        2.242      15.000     0.0000     0.0000     1         
C_28296          RECT_OPEN        2.242      15.000     0.0000     0.0000     1         
C_28297          RECT_OPEN        1.578      5.000      0.0000     0.0000     1         
C_28298          RECT_OPEN        1.513      12.000     0.0000     0.0000     1         
C_28299          RECT_OPEN        1.506      12.000     0.0000     0.0000     1         
C_28300          RECT_OPEN        1.498      12.000     0.0000     0.0000     1         
C_28301          RECT_OPEN        1.490      12.000     0.0000     0.0000     1         
C_28302          RECT_OPEN        1.575      7.000      0.0000     0.0000     1         
C_28303          RECT_OPEN        1.507      7.000      0.0000     0.0000     1         
C_28304          RECT_OPEN        1.177      7.000      0.0000     0.0000     1         
C_28305          RECT_OPEN        1.500      3.000      0.0000     0.0000     1         
C_28306          RECT_OPEN        1.500      3.000      0.0000     0.0000     1         
C_28307          RECT_CLOSED      1.462      5.000      0.0000     0.0000     1         
C_28308          RECT_OPEN        1.504      3.000      0.0000     0.0000     1         
C_28309          RECT_OPEN        2.070      3.082      0.0000     0.0000     1         
C_28310          RECT_OPEN        2.078      3.096      0.0000     0.0000     1         
C_28311          RECT_OPEN        2.373      3.096      0.0000     0.0000     1         
C_28312          RECT_OPEN        2.153      3.096      0.0000     0.0000     1         
C_28313          RECT_OPEN        1.860      3.096      0.0000     0.0000     1         
C_28314          RECT_OPEN        1.983      2.903      0.0000     0.0000     1         
C_28315          RECT_OPEN        1.811      3.301      0.0000     0.0000     1         
C_28316          RECT_OPEN        1.601      2.409      0.0000     0.0000     1         
C_28317          RECT_OPEN        1.694      2.295      0.0000     0.0000     1         
C_28318          RECT_OPEN        1.938      3.096      0.0000     0.0000     1         
C_28319          RECT_CLOSED      1.698      3.000      0.0000     0.0000     1         
C_28320          RECT_CLOSED      1.488      3.000      0.0000     0.0000     1         
C_28321          RECT_CLOSED      1.278      3.000      0.0000     0.0000     1         
C_28322          RECT_CLOSED      1.058      3.000      0.0000     0.0000     1         
C_28323          RECT_OPEN        1.726      2.965      0.0000     0.0000     1         
C_28324          RECT_CLOSED      1.399      5.000      0.0000     0.0000     1         
C_28325          RECT_OPEN        1.419      3.290      0.0000     0.0000     1         
C_28326          RECT_OPEN        1.781      4.151      0.0000     0.0000     1         
C_28327          RECT_CLOSED      1.800      1.800      0.0000     0.0000     1         
C_28328          RECT_OPEN        1.200      1.800      0.0000     0.0000     1         
C_28329          RECT_OPEN        1.200      1.800      0.0000     0.0000     1         
C_28330          RECT_OPEN        1.200      1.800      0.0000     0.0000     1         
C_28331          RECT_OPEN        1.200      1.800      0.0000     0.0000     1         
C_28332          RECT_CLOSED      1.298      3.000      0.0000     0.0000     1         
C_28333          RECT_CLOSED      1.228      3.000      0.0000     0.0000     1         
C_28334          RECT_CLOSED      1.125      4.500      0.0000     0.0000     1         
C_28335          RECT_CLOSED      0.939      4.500      0.0000     0.0000     1         
C_28336          RECT_OPEN        1.868      4.897      0.0000     0.0000     1         
C_28337          RECT_OPEN        2.253      5.017      0.0000     0.0000     1         
C_28338          RECT_OPEN        1.655      5.005      0.0000     0.0000     1         
C_28339          RECT_OPEN        1.887      5.184      0.0000     0.0000     1         
C_28340          RECT_OPEN        1.513      6.000      0.0000     0.0000     1         
C_28341          RECT_CLOSED      1.611      5.000      0.0000     0.0000     1         
C_28342          RECT_OPEN        1.566      6.000      0.0000     0.0000     1         
C_28343          RECT_OPEN        1.898      6.000      0.0000     0.0000     1         
C_28344          RECT_CLOSED      1.718      6.000      0.0000     0.0000     1         
C_28345          RECT_OPEN        1.718      6.000      0.0000     0.0000     1         
C_28347          RECT_OPEN        2.075      4.500      0.0000     0.0000     1         
C_28349          RECT_OPEN        2.127      4.500      0.0000     0.0000     1         
C_28350          RECT_OPEN        2.014      4.996      0.0000     0.0000     1         
C_28351          RECT_OPEN        2.079      5.000      0.0000     0.0000     1         
C_28352          RECT_OPEN        2.062      5.028      0.0000     0.0000     1         
C_28353          RECT_CLOSED      2.062      6.000      0.0000     0.0000     1         
C_28354          RECT_OPEN        2.735      3.500      0.0000     0.0000     1         
C_28355          RECT_OPEN        2.062      5.028      0.0000     0.0000     1         
C_28356          RECT_OPEN        1.907      4.977      0.0000     0.0000     1         
C_28357          RECT_CLOSED      1.928      4.700      0.0000     0.0000     1         
C_28358          RECT_OPEN        1.907      4.977      0.0000     0.0000     1         
C_28359          RECT_OPEN        1.705      7.172      0.0000     0.0000     1         
C_28361          RECT_CLOSED      2.619      3.500      0.0000     0.0000     1         
C_28362          RECT_OPEN        1.839      3.000      0.0000     0.0000     1         
C_28363          RECT_OPEN        2.202      2.918      0.0000     0.0000     1         
C_28364          RECT_OPEN        1.855      3.090      0.0000     0.0000     1         
C_28365          RECT_OPEN        2.000      3.082      0.0000     0.0000     1         
C_28366          RECT_OPEN        1.914      3.037      0.0000     0.0000     1         
C_28368          RECT_OPEN        1.817      3.160      0.0000     0.0000     1         
C_28371          RECT_OPEN        2.177      4.500      0.0000     0.0000     1         
C_28372          RECT_OPEN        2.177      4.500      0.0000     0.0000     1         
C_28373          RECT_OPEN        2.621      4.500      0.0000     0.0000     1         
C_28374          RECT_OPEN        2.621      4.500      0.0000     0.0000     1         
C_28381          RECT_CLOSED      1.973      14.000     0.0000     0.0000     1         
C_28382          RECT_CLOSED      1.973      4.000      0.0000     0.0000     1         
C_28383          RECT_CLOSED      1.876      4.000      0.0000     0.0000     1         
C_28384          RECT_CLOSED      1.876      4.000      0.0000     0.0000     1         
C_28385          RECT_CLOSED      1.921      4.000      0.0000     0.0000     1         
C_28386          RECT_CLOSED      1.921      4.000      0.0000     0.0000     1         
C_28387          RECT_CLOSED      1.922      4.000      0.0000     0.0000     1         
C_28388          RECT_CLOSED      1.922      4.000      0.0000     0.0000     1         
C_28389          RECT_CLOSED      1.923      4.000      0.0000     0.0000     1         
C_28390          RECT_CLOSED      1.923      4.000      0.0000     0.0000     1         
C_28391          RECT_CLOSED      1.925      4.000      0.0000     0.0000     1         
C_28392          RECT_CLOSED      1.925      4.000      0.0000     0.0000     1         
C_28393          RECT_CLOSED      1.928      4.000      0.0000     0.0000     1         
C_28394          RECT_CLOSED      1.928      4.000      0.0000     0.0000     1         
C_28395          RECT_OPEN        2.343      13.000     0.0000     0.0000     1         
C_28396          RECT_OPEN        2.343      13.000     0.0000     0.0000     1         
C_28397          RECT_OPEN        2.355      13.000     0.0000     0.0000     1         
C_28398          RECT_OPEN        2.355      13.000     0.0000     0.0000     1         
C_28399          RECT_OPEN        2.028      13.000     0.0000     0.0000     1         
C_28400          RECT_OPEN        2.268      15.000     0.0000     0.0000     1         
C_28401          RECT_OPEN        2.268      13.000     0.0000     0.0000     1         
C_28402          RECT_OPEN        2.268      15.000     0.0000     0.0000     1         
C_28403          RECT_OPEN        2.152      13.000     0.0000     0.0000     1         
C_28404          RECT_OPEN        2.384      13.000     0.0000     0.0000     1         
C_28405          RECT_OPEN        2.279      13.000     0.0000     0.0000     1         
C_28406          RECT_OPEN        2.279      13.000     0.0000     0.0000     1         
C_28407          RECT_OPEN        2.291      13.000     0.0000     0.0000     1         
C_28408          RECT_OPEN        2.291      13.000     0.0000     0.0000     1         
C_28409          RECT_OPEN        2.233      13.000     0.0000     0.0000     1         
C_28410          RECT_OPEN        2.233      13.000     0.0000     0.0000     1         
C_28412          RECT_OPEN        2.228      13.000     0.0000     0.0000     1         
C_28413          RECT_OPEN        2.228      13.000     0.0000     0.0000     1         
C_28414          RECT_OPEN        2.249      13.000     0.0000     0.0000     1         
C_28415          RECT_OPEN        2.249      13.000     0.0000     0.0000     1         
C_28416          RECT_OPEN        2.246      13.000     0.0000     0.0000     1         
C_28417          RECT_OPEN        2.246      13.000     0.0000     0.0000     1         
C_28420          RECT_OPEN        3.230      1.465      0.0000     0.0000     1         
C_28422          RECT_OPEN        3.212      0.555      0.0000     0.0000     1         
C_28424          RECT_OPEN        2.269      4.500      0.0000     0.0000     1         
C_28425          RECT_OPEN        2.269      4.500      0.0000     0.0000     1         
C_28426          RECT_OPEN        2.059      4.500      0.0000     0.0000     1         
C_28427          RECT_OPEN        2.059      4.500      0.0000     0.0000     1         
C_28428          RECT_OPEN        3.044      1.465      0.0000     0.0000     1         
C_28430          RECT_OPEN        3.037      1.465      0.0000     0.0000     1         
C_28432          RECT_OPEN        3.206      1.350      0.0000     0.0000     1         
C_28434          RECT_OPEN        2.173      13.000     0.0000     0.0000     1         
C_28435          RECT_OPEN        2.173      13.000     0.0000     0.0000     1         
C_28436          RECT_CLOSED      2.779      13.000     0.0000     0.0000     1         
C_28437          RECT_CLOSED      2.779      13.000     0.0000     0.0000     1         
C_28438          RECT_OPEN        3.054      1.465      0.0000     0.0000     1         
C_28440          RECT_OPEN        2.780      13.000     0.0000     0.0000     1         
C_28441          RECT_OPEN        2.780      13.000     0.0000     0.0000     1         
C_28442          RECT_OPEN        2.394      13.000     0.0000     0.0000     1         
C_28443          RECT_OPEN        2.394      13.000     0.0000     0.0000     1         
C_28444          RECT_OPEN        3.160      13.000     0.0000     0.0000     1         
C_28445          RECT_OPEN        3.160      13.000     0.0000     0.0000     1         
C_28446          RECT_OPEN        3.353      13.000     0.0000     0.0000     1         
C_28447          RECT_OPEN        3.353      13.000     0.0000     0.0000     1         
C_28448          RECT_OPEN        2.301      13.000     0.0000     0.0000     1         
C_28449          RECT_OPEN        2.301      13.000     0.0000     0.0000     1         
C_28450          RECT_OPEN        2.301      13.000     0.0000     0.0000     1         
C_28451          RECT_OPEN        2.301      13.000     0.0000     0.0000     1         
C_28452          RECT_OPEN        2.053      4.500      0.0000     0.0000     1         
C_28453          RECT_OPEN        2.053      4.500      0.0000     0.0000     1         
C_28454          RECT_OPEN        3.221      1.465      0.0000     0.0000     1         
C_28456          RECT_OPEN        3.193      1.624      0.0000     0.0000     1         
C_28458          RECT_OPEN        3.777      1.624      0.0000     0.0000     1         
C_28460          RECT_OPEN        3.766      1.624      0.0000     0.0000     1         
C_28462          RECT_OPEN        3.351      1.624      0.0000     0.0000     1         
C_28464          RECT_OPEN        3.334      1.624      0.0000     0.0000     1         
C_28466          RECT_OPEN        3.310      1.624      0.0000     0.0000     1         
C_28468          RECT_OPEN        3.291      1.624      0.0000     0.0000     1         
C_28470          RECT_OPEN        2.693      1.624      0.0000     0.0000     1         
C_28472          RECT_OPEN        3.448      1.687      0.0000     0.0000     1         
C_28474          RECT_OPEN        3.472      1.687      0.0000     0.0000     1         
C_28476          RECT_OPEN        2.490      13.000     0.0000     0.0000     1         
C_28477          RECT_OPEN        2.490      13.000     0.0000     0.0000     1         
C_28478          RECT_OPEN        2.469      13.000     0.0000     0.0000     1         
C_28479          RECT_OPEN        2.469      13.000     0.0000     0.0000     1         
C_28480          RECT_OPEN        2.238      13.000     0.0000     0.0000     1         
C_28481          RECT_OPEN        2.238      13.000     0.0000     0.0000     1         
C_28482          RECT_OPEN        2.247      13.000     0.0000     0.0000     1         
C_28483          RECT_OPEN        2.247      13.000     0.0000     0.0000     1         
C_28484          RECT_OPEN        2.115      13.000     0.0000     0.0000     1         
C_28485          RECT_OPEN        2.115      13.000     0.0000     0.0000     1         
C_28486          RECT_OPEN        2.184      13.000     0.0000     0.0000     1         
C_28487          RECT_OPEN        2.184      13.000     0.0000     0.0000     1         
C_28488          RECT_OPEN        2.103      13.000     0.0000     0.0000     1         
C_28489          RECT_OPEN        2.103      13.000     0.0000     0.0000     1         
C_28490          RECT_OPEN        2.041      13.000     0.0000     0.0000     1         
C_28491          RECT_OPEN        2.041      13.000     0.0000     0.0000     1         
C_28492          RECT_OPEN        2.211      13.000     0.0000     0.0000     1         
C_28493          RECT_OPEN        2.211      13.000     0.0000     0.0000     1         
C_28494          RECT_OPEN        2.090      13.000     0.0000     0.0000     1         
C_28495          RECT_OPEN        2.090      13.000     0.0000     0.0000     1         
C_28496          RECT_OPEN        2.169      13.000     0.0000     0.0000     1         
C_28497          RECT_OPEN        2.169      13.000     0.0000     0.0000     1         
C_28498          RECT_OPEN        2.113      13.000     0.0000     0.0000     1         
C_28499          RECT_OPEN        2.113      13.000     0.0000     0.0000     1         
C_28500          RECT_OPEN        2.178      13.000     0.0000     0.0000     1         
C_28501          RECT_OPEN        2.178      13.000     0.0000     0.0000     1         
C_28502          RECT_OPEN        2.014      13.000     0.0000     0.0000     1         
C_28503          RECT_OPEN        2.014      13.000     0.0000     0.0000     1         
C_28504          RECT_OPEN        2.023      13.000     0.0000     0.0000     1         
C_28505          RECT_OPEN        2.023      13.000     0.0000     0.0000     1         
C_28506          RECT_OPEN        2.092      13.000     0.0000     0.0000     1         
C_28507          RECT_OPEN        2.092      13.000     0.0000     0.0000     1         
C_28508          RECT_OPEN        1.961      13.000     0.0000     0.0000     1         
C_28509          RECT_OPEN        1.961      13.000     0.0000     0.0000     1         
C_28510          RECT_OPEN        2.344      4.800      0.0000     0.0000     1         
C_28511          RECT_OPEN        2.344      4.800      0.0000     0.0000     1         
C_28512          RECT_OPEN        2.352      4.800      0.0000     0.0000     1         
C_28513          RECT_OPEN        2.352      4.800      0.0000     0.0000     1         
C_28514          RECT_OPEN        2.391      4.800      0.0000     0.0000     1         
C_28515          RECT_OPEN        2.391      4.800      0.0000     0.0000     1         
C_28516          RECT_OPEN        2.401      4.800      0.0000     0.0000     1         
C_28517          RECT_OPEN        2.401      4.800      0.0000     0.0000     1         
C_28518          RECT_OPEN        2.446      4.800      0.0000     0.0000     1         
C_28519          RECT_OPEN        2.446      4.800      0.0000     0.0000     1         
C_28520          RECT_OPEN        2.496      4.800      0.0000     0.0000     1         
C_28521          RECT_OPEN        2.496      4.800      0.0000     0.0000     1         
C_28522          RECT_CLOSED      1.892      2.000      0.0000     0.0000     1         
C_28523          RECT_CLOSED      1.500      1.500      0.0000     0.0000     1         
C_28524          RECT_CLOSED      1.734      2.000      0.0000     0.0000     1         
C_28525          RECT_CLOSED      1.702      2.000      0.0000     0.0000     1         
C_28527          RECT_CLOSED      2.000      2.500      0.0000     0.0000     1         
C_28528          RECT_CLOSED      1.698      2.000      0.0000     0.0000     1         
C_28529          RECT_CLOSED      1.537      1.500      0.0000     0.0000     1         
C_28531          RECT_CLOSED      1.500      3.000      0.0000     0.0000     1         
C_28532          RECT_CLOSED      1.500      2.000      0.0000     0.0000     1         
C_28533          RECT_CLOSED      1.500      2.000      0.0000     0.0000     1         
C_28534          RECT_CLOSED      1.634      1.500      0.0000     0.0000     1         
C_28535          RECT_CLOSED      1.697      2.000      0.0000     0.0000     1         
C_28536          RECT_CLOSED      1.815      2.000      0.0000     0.0000     1         
C_28537          RECT_CLOSED      1.717      2.000      0.0000     0.0000     1         
C_28538          RECT_CLOSED      1.648      2.000      0.0000     0.0000     1         
C_28539          RECT_CLOSED      1.624      2.000      0.0000     0.0000     1         
C_28540          RECT_CLOSED      1.533      2.000      0.0000     0.0000     1         
C_28541          RECT_CLOSED      1.621      2.000      0.0000     0.0000     1         
C_28542          RECT_CLOSED      1.798      1.500      0.0000     0.0000     1         
C_28543          RECT_CLOSED      1.811      2.000      0.0000     0.0000     1         
C_28544          RECT_CLOSED      1.973      2.000      0.0000     0.0000     1         
C_28545          RECT_CLOSED      1.946      2.000      0.0000     0.0000     1         
C_28546          RECT_CLOSED      2.176      2.000      0.0000     0.0000     1         
C_28547          RECT_CLOSED      1.836      1.500      0.0000     0.0000     1         
C_28548          RECT_CLOSED      1.874      2.000      0.0000     0.0000     1         
C_28549          RECT_CLOSED      2.008      1.500      0.0000     0.0000     1         
C_28550          RECT_CLOSED      1.874      2.000      0.0000     0.0000     1         
C_28551          RECT_CLOSED      1.869      2.000      0.0000     0.0000     1         
C_28552          RECT_CLOSED      1.500      1.500      0.0000     0.0000     1         
C_28554          RECT_OPEN        1.634      2.165      0.0000     0.0000     1         
C_28555          RECT_OPEN        1.699      3.000      0.0000     0.0000     1         
C_28556          RECT_CLOSED      1.892      2.000      0.0000     0.0000     1         
C_28558          RECT_CLOSED      1.500      1.500      0.0000     0.0000     1         
C_28559          RECT_OPEN        1.650      3.000      0.0000     0.0000     1         
C_28560          RECT_CLOSED      1.617      3.000      0.0000     0.0000     1         
C_28561          CIRCULAR         0.900      0.900      0.0000     0.0000     1         
C_28562          CIRCULAR         0.900      0.900      0.0000     0.0000     1         
C_28563          RECT_CLOSED      1.500      1.500      0.0000     0.0000     1         
C_28564          CIRCULAR         0.900      0.900      0.0000     0.0000     1         
C_28565          RECT_CLOSED      1.500      1.500      0.0000     0.0000     1         
C_28566          CIRCULAR         0.900      0.900      0.0000     0.0000     1         
C_28567          RECT_CLOSED      1.500      1.500      0.0000     0.0000     1         
C_28568          CIRCULAR         0.900      0.900      0.0000     0.0000     1         
C_28569          RECT_CLOSED      1.500      1.500      0.0000     0.0000     1         
C_28570          RECT_CLOSED      1.200      1.800      0.0000     0.0000     1         
C_28571          RECT_CLOSED      1.500      1.500      0.0000     0.0000     1         
C_28573          RECT_CLOSED      1.200      1.800      0.0000     0.0000     1         
C_28574          RECT_CLOSED      1.500      1.500      0.0000     0.0000     1         
C_28576          RECT_OPEN        2.408      4.800      0.0000     0.0000     1         
C_28577          RECT_OPEN        2.283      4.800      0.0000     0.0000     1         
C_28578          RECT_OPEN        2.283      4.800      0.0000     0.0000     1         
C_28581          CIRCULAR         1.400      1.400      0.0000     0.0000     1         
C_28582          RECT_CLOSED      1.500      1.500      0.0000     0.0000     1         
C_28583          RECT_CLOSED      1.500      1.800      0.0000     0.0000     1         
C_28584          RECT_CLOSED      1.430      0.600      0.0000     0.0000     1         
C_28585          RECT_CLOSED      1.500      1.800      0.0000     0.0000     1         
C_28586          RECT_OPEN        2.157      4.800      0.0000     0.0000     1         
C_28587          RECT_OPEN        2.157      4.800      0.0000     0.0000     1         
C_28588          RECT_CLOSED      1.595      0.600      0.0000     0.0000     1         
C_28589          RECT_OPEN        1.598      1.800      0.0000     0.0000     1         
C_28591          RECT_OPEN        1.939      1.800      0.0000     0.0000     1         
C_28592          RECT_OPEN        1.498      1.800      0.0000     0.0000     1         
C_28593          RECT_OPEN        2.097      4.800      0.0000     0.0000     1         
C_28594          RECT_OPEN        2.097      4.800      0.0000     0.0000     1         
C_28595          RECT_OPEN        2.223      4.800      0.0000     0.0000     1         
C_28596          RECT_OPEN        2.223      4.800      0.0000     0.0000     1         
C_28597          RECT_OPEN        1.500      1.800      0.0000     0.0000     1         
C_28598          RECT_OPEN        2.164      4.800      0.0000     0.0000     1         
C_28599          RECT_OPEN        2.164      4.800      0.0000     0.0000     1         
C_28600          RECT_OPEN        2.592      4.800      0.0000     0.0000     1         
C_28601          RECT_OPEN        2.592      4.800      0.0000     0.0000     1         
C_28602          RECT_OPEN        1.500      1.800      0.0000     0.0000     1         
C_28603          RECT_OPEN        2.000      3.000      0.0000     0.0000     1         
C_28604          RECT_OPEN        2.000      3.000      0.0000     0.0000     1         
C_28605          RECT_OPEN        2.000      3.000      0.0000     0.0000     1         
C_28606          RECT_OPEN        4.101      14.410     0.0000     0.0000     1         
C_28607          RECT_OPEN        3.834      14.209     0.0000     0.0000     1         
C_28608          RECT_OPEN        3.645      14.727     0.0000     0.0000     1         
C_28609          RECT_OPEN        2.984      14.556     0.0000     0.0000     1         
C_28610          RECT_OPEN        2.756      14.490     0.0000     0.0000     1         
C_28611          RECT_OPEN        2.735      14.488     0.0000     0.0000     1         
C_28612          RECT_OPEN        2.692      14.433     0.0000     0.0000     1         
C_28613          RECT_CLOSED      3.238      8.000      0.0000     0.0000     1         
C_28614          RECT_CLOSED      3.187      8.000      0.0000     0.0000     1         
C_28615          RECT_OPEN        2.622      5.781      0.0000     0.0000     1         
C_28616          RECT_OPEN        2.536      12.761     0.0000     0.0000     1         
C_28617          RECT_OPEN        3.157      12.700     0.0000     0.0000     1         
C_28618          RECT_OPEN        3.251      13.900     0.0000     0.0000     1         
C_28619          RECT_OPEN        3.320      10.700     0.0000     0.0000     1         
C_28620          RECT_OPEN        3.455      8.260      0.0000     0.0000     1         
C_28621          RECT_OPEN        3.388      8.260      0.0000     0.0000     1         
C_28622          RECT_OPEN        3.263      13.000     0.0000     0.0000     1         
C_28623          RECT_OPEN        3.157      13.000     0.0000     0.0000     1         
C_28624          RECT_OPEN        1.500      1.500      0.0000     0.0000     1         
C_28625          RECT_OPEN        1.500      1.500      0.0000     0.0000     1         
C_28627          RECT_OPEN        0.500      1.000      0.0000     0.0000     1         
C_28629          RECT_CLOSED      1.500      1.500      0.0000     0.0000     1         
C_28632          RECT_OPEN        3.315      12.500     0.0000     0.0000     1         
C_28633          RECT_OPEN        3.211      13.100     0.0000     0.0000     1         
C_28634          RECT_OPEN        3.802      11.000     0.0000     0.0000     1         
C_28635          RECT_OPEN        3.891      12.000     0.0000     0.0000     1         
C_28636          RECT_OPEN        3.770      11.000     0.0000     0.0000     1         
C_28637          RECT_CLOSED      4.099      13.000     0.0000     0.0000     1         
C_28638          RECT_CLOSED      3.989      13.000     0.0000     0.0000     1         
C_28639          RECT_OPEN        3.691      12.800     0.0000     0.0000     1         
C_28640          RECT_OPEN        4.128      12.000     0.0000     0.0000     1         
C_28641          RECT_OPEN        4.056      12.000     0.0000     0.0000     1         
C_28642          RECT_OPEN        3.954      12.000     0.0000     0.0000     1         
C_28643          RECT_OPEN        4.219      12.000     0.0000     0.0000     1         
C_28644          RECT_OPEN        4.305      12.000     0.0000     0.0000     1         
C_28645          RECT_OPEN        4.503      7.356      0.0000     0.0000     1         
C_28646          RECT_OPEN        3.891      7.356      0.0000     0.0000     1         
C_28647          RECT_CLOSED      3.638      11.000     0.0000     0.0000     1         
C_28648          RECT_CLOSED      3.756      13.000     0.0000     0.0000     1         
C_28649          RECT_OPEN        3.601      13.000     0.0000     0.0000     1         
C_28650          RECT_OPEN        3.724      13.000     0.0000     0.0000     1         
C_28651          RECT_OPEN        3.585      13.000     0.0000     0.0000     1         
C_28652          RECT_OPEN        3.494      13.000     0.0000     0.0000     1         
C_28653          RECT_OPEN        4.155      13.000     0.0000     0.0000     1         
C_28654          RECT_OPEN        4.259      13.000     0.0000     0.0000     1         
C_28655          RECT_CLOSED      4.111      13.000     0.0000     0.0000     1         
C_28656          RECT_CLOSED      2.000      4.000      0.0000     0.0000     1         
C_28657          RECT_CLOSED      4.264      13.000     0.0000     0.0000     1         
C_28658          RECT_OPEN        3.263      13.000     0.0000     0.0000     1         
C_28659          RECT_OPEN        3.208      13.000     0.0000     0.0000     1         
C_28660          RECT_OPEN        2.903      13.000     0.0000     0.0000     1         
C_28661          RECT_OPEN        3.304      13.000     0.0000     0.0000     1         
C_28662          RECT_OPEN        3.368      13.000     0.0000     0.0000     1         
C_28663          RECT_CLOSED      2.000      4.000      0.0000     0.0000     1         
C_28664          RECT_CLOSED      2.000      4.000      0.0000     0.0000     1         
C_28666          RECT_CLOSED      2.000      6.000      0.0000     0.0000     1         
C_28668          RECT_OPEN        1.982      4.500      0.0000     0.0000     1         
C_28669          RECT_CLOSED      1.864      5.000      0.0000     0.0000     1         
C_28670          RECT_CLOSED      2.034      5.000      0.0000     0.0000     1         
C_28671          RECT_OPEN        2.064      5.212      0.0000     0.0000     1         
C_28672          RECT_CLOSED      3.000      6.000      0.0000     0.0000     1         
C_28673          RECT_CLOSED      3.000      6.000      0.0000     0.0000     1         
C_28674          RECT_CLOSED      3.000      6.000      0.0000     0.0000     1         
C_28675          RECT_CLOSED      3.000      6.000      0.0000     0.0000     1         
C_28676          RECT_OPEN        3.920      13.000     0.0000     0.0000     1         
C_28677          RECT_OPEN        3.635      13.000     0.0000     0.0000     1         
C_28678          RECT_OPEN        3.302      13.000     0.0000     0.0000     1         
C_28679          RECT_OPEN        3.509      13.000     0.0000     0.0000     1         
C_28680          RECT_OPEN        3.128      13.000     0.0000     0.0000     1         
C_28681          RECT_OPEN        2.951      13.000     0.0000     0.0000     1         
C_28682          RECT_OPEN        3.342      13.000     0.0000     0.0000     1         
C_28683          RECT_OPEN        2.974      13.000     0.0000     0.0000     1         
C_28684          RECT_OPEN        2.905      13.000     0.0000     0.0000     1         
C_28685          RECT_OPEN        3.035      13.000     0.0000     0.0000     1         
C_28686          RECT_OPEN        3.317      13.000     0.0000     0.0000     1         
C_28687          RECT_OPEN        3.267      13.000     0.0000     0.0000     1         
C_28689          RECT_CLOSED      1.752      4.500      0.0000     0.0000     1         
C_28690          RECT_CLOSED      1.648      4.500      0.0000     0.0000     1         
C_28691          RECT_OPEN        1.838      2.493      0.0000     0.0000     1         
C_28692          RECT_OPEN        1.585      2.165      0.0000     0.0000     1         
C_28693          RECT_OPEN        1.515      2.165      0.0000     0.0000     1         
C_28694          RECT_OPEN        1.644      2.017      0.0000     0.0000     1         
C_28695          RECT_OPEN        1.672      2.165      0.0000     0.0000     1         
C_28696          RECT_OPEN        1.385      2.165      0.0000     0.0000     1         
C_28697          RECT_CLOSED      2.375      6.000      0.0000     0.0000     1         
C_28698          RECT_CLOSED      1.397      2.000      0.0000     0.0000     1         
C_28699          RECT_OPEN        2.605      5.206      0.0000     0.0000     1         
C_28700          RECT_OPEN        2.528      7.874      0.0000     0.0000     1         
C_28701          RECT_OPEN        2.580      5.360      0.0000     0.0000     1         
C_28702          RECT_OPEN        2.563      6.333      0.0000     0.0000     1         
C_28703          RECT_CLOSED      1.348      2.000      0.0000     0.0000     1         
C_28704          RECT_OPEN        2.499      4.146      0.0000     0.0000     1         
C_28705          RECT_OPEN        2.674      3.619      0.0000     0.0000     1         
C_28706          RECT_OPEN        2.620      4.783      0.0000     0.0000     1         
C_28707          RECT_OPEN        2.572      4.455      0.0000     0.0000     1         
C_28708          RECT_OPEN        2.536      2.440      0.0000     0.0000     1         
C_28709          RECT_CLOSED      2.466      12.000     0.0000     0.0000     1         
C_28710          RECT_CLOSED      2.461      12.000     0.0000     0.0000     1         
C_28719          RECT_CLOSED      1.500      2.000      0.0000     0.0000     1         
C_28721          RECT_CLOSED      1.500      2.000      0.0000     0.0000     1         
C_28722          RECT_CLOSED      1.000      1.000      0.0000     0.0000     1         
C_28724          RECT_CLOSED      1.000      1.000      0.0000     0.0000     1         
C_28725          RECT_CLOSED      1.000      1.000      0.0000     0.0000     1         
C_28726          RECT_CLOSED      3.000      6.000      0.0000     0.0000     1         
C_28727          RECT_CLOSED      3.000      6.000      0.0000     0.0000     1         
C_28728          RECT_CLOSED      3.000      6.000      0.0000     0.0000     1         
C_28737          RECT_CLOSED      1.500      1.500      0.0000     0.0000     1         
C_28738          RECT_CLOSED      1.500      1.500      0.0000     0.0000     1         
C_28739          RECT_CLOSED      1.000      1.000      0.0000     0.0000     1         
C_28740          RECT_CLOSED      1.000      1.000      0.0000     0.0000     1         
C_28743          RECT_CLOSED      1.000      1.000      0.0000     0.0000     1         
C_28744          RECT_CLOSED      1.000      1.000      0.0000     0.0000     1         
C_28751          RECT_CLOSED      1.000      1.000      0.0000     0.0000     1         
C_28752          RECT_CLOSED      1.200      1.200      0.0000     0.0000     1         
C_29106          RECT_OPEN        1.743      12.000     0.0000     0.0000     1         
C_29107          RECT_OPEN        1.755      12.000     0.0000     0.0000     1         
C_29108          RECT_OPEN        1.344      7.000      0.0000     0.0000     1         
C_29109          RECT_OPEN        1.429      7.000      0.0000     0.0000     1         
C_29110          RECT_OPEN        1.469      4.426      0.0000     0.0000     1         
C_29117          RECT_OPEN        1.575      4.981      0.0000     0.0000     1         
C_29118          RECT_OPEN        1.572      4.956      0.0000     0.0000     1         
C_29119          RECT_OPEN        1.563      4.972      0.0000     0.0000     1         
C_29120          RECT_OPEN        1.550      4.676      0.0000     0.0000     1         
C_29121          RECT_OPEN        1.629      5.000      0.0000     0.0000     1         
C_29122          RECT_OPEN        1.570      5.000      0.0000     0.0000     1         
C_29123          RECT_OPEN        1.470      5.000      0.0000     0.0000     1         
C_29128          RECT_OPEN        1.546      5.020      0.0000     0.0000     1         
C_29129          RECT_OPEN        1.535      5.073      0.0000     0.0000     1         
C_29131          RECT_OPEN        1.537      5.214      0.0000     0.0000     1         
C_29133          RECT_CLOSED      1.630      7.000      0.0000     0.0000     1         
C_29135          RECT_OPEN        1.555      7.000      0.0000     0.0000     1         
C_29136          RECT_OPEN        1.564      7.000      0.0000     0.0000     1         
C_29137          RECT_CLOSED      1.741      7.000      0.0000     0.0000     1         
C_29150          RECT_OPEN        2.344      5.266      0.0000     0.0000     1         
C_29151          RECT_OPEN        1.827      5.000      0.0000     0.0000     1         
C_29152          RECT_OPEN        2.086      5.000      0.0000     0.0000     1         
C_29153          RECT_OPEN        2.371      5.000      0.0000     0.0000     1         
C_29154          RECT_OPEN        2.405      5.000      0.0000     0.0000     1         
C_29155          RECT_CLOSED      2.401      5.000      0.0000     0.0000     1         
C_29166          RECT_CLOSED      2.365      5.000      0.0000     0.0000     1         
C_29167          RECT_CLOSED      2.331      5.000      0.0000     0.0000     1         
C_29168          RECT_CLOSED      2.294      5.000      0.0000     0.0000     1         
C_29169          RECT_CLOSED      2.238      5.000      0.0000     0.0000     1         
C_29170          RECT_OPEN        2.180      5.000      0.0000     0.0000     1         
C_29171          RECT_OPEN        2.040      5.000      0.0000     0.0000     1         
C_29179          RECT_OPEN        2.002      5.000      0.0000     0.0000     1         
C_29181          RECT_CLOSED      2.007      5.000      0.0000     0.0000     1         
C_29184          RECT_CLOSED      2.440      5.000      0.0000     0.0000     1         
C_29190          RECT_CLOSED      2.369      5.000      0.0000     0.0000     1         
C_29196          RECT_CLOSED      2.704      5.000      0.0000     0.0000     1         
C_29200          RECT_CLOSED      2.915      5.000      0.0000     0.0000     1         
C_29201          RECT_OPEN        2.256      15.000     0.0000     0.0000     1         
C_29202          RECT_OPEN        2.256      15.000     0.0000     0.0000     1         
C_29203          RECT_OPEN        2.239      13.000     0.0000     0.0000     1         
C_29204          RECT_OPEN        2.239      13.000     0.0000     0.0000     1         
C_29205          RECT_OPEN        2.082      4.800      0.0000     0.0000     1         
C_29206          RECT_OPEN        2.082      4.800      0.0000     0.0000     1         
C_29207          RECT_OPEN        2.894      13.000     0.0000     0.0000     1         
C_29208          RECT_OPEN        2.894      13.000     0.0000     0.0000     1         
C_29209          RECT_CLOSED      3.057      13.000     0.0000     0.0000     1         
C_29210          RECT_CLOSED      3.057      13.000     0.0000     0.0000     1         
C_29211          RECT_CLOSED      2.532      13.000     0.0000     0.0000     1         
C_29212          RECT_CLOSED      2.532      13.000     0.0000     0.0000     1         
C_29213          RECT_CLOSED      1.579      4.500      0.0000     0.0000     1         
C_29214          RECT_CLOSED      1.579      4.500      0.0000     0.0000     1         
C_29215          RECT_CLOSED      1.740      4.500      0.0000     0.0000     1         
C_29216          RECT_CLOSED      1.740      4.500      0.0000     0.0000     1         
C_29217          RECT_OPEN        2.724      13.000     0.0000     0.0000     1         
C_29218          RECT_OPEN        2.724      13.000     0.0000     0.0000     1         
C_29219          RECT_OPEN        2.527      9.600      0.0000     0.0000     1         
C_29220          RECT_OPEN        2.527      9.600      0.0000     0.0000     1         
C_29221          RECT_OPEN        2.242      4.800      0.0000     0.0000     1         
C_29222          RECT_OPEN        2.242      4.800      0.0000     0.0000     1         
C_29223          RECT_CLOSED      1.448      4.500      0.0000     0.0000     1         
C_29224          RECT_CLOSED      1.448      4.500      0.0000     0.0000     1         
C_29225          RECT_CLOSED      1.587      4.500      0.0000     0.0000     1         
C_29226          RECT_CLOSED      1.587      4.500      0.0000     0.0000     1         
C_29227          RECT_CLOSED      1.478      4.500      0.0000     0.0000     1         
C_29228          RECT_CLOSED      1.478      4.500      0.0000     0.0000     1         
C_29229          RECT_CLOSED      1.596      4.500      0.0000     0.0000     1         
C_29230          RECT_CLOSED      1.596      4.500      0.0000     0.0000     1         
C_29231          RECT_CLOSED      1.697      4.500      0.0000     0.0000     1         
C_29232          RECT_CLOSED      1.697      4.500      0.0000     0.0000     1         
C_29233          RECT_CLOSED      2.008      4.500      0.0000     0.0000     1         
C_29234          RECT_CLOSED      2.008      4.500      0.0000     0.0000     1         
C_29235          RECT_CLOSED      1.785      4.500      0.0000     0.0000     1         
C_29236          RECT_CLOSED      1.785      4.500      0.0000     0.0000     1         
C_29237          RECT_OPEN        2.265      15.000     0.0000     0.0000     1         
C_29238          RECT_OPEN        2.265      15.000     0.0000     0.0000     1         
C_29239          RECT_OPEN        2.491      9.600      0.0000     0.0000     1         
C_29240          RECT_OPEN        2.491      9.600      0.0000     0.0000     1         
C_29241          RECT_OPEN        2.690      9.600      0.0000     0.0000     1         
C_29242          RECT_OPEN        2.690      9.600      0.0000     0.0000     1         
C_29243          RECT_OPEN        2.365      9.600      0.0000     0.0000     1         
C_29244          RECT_OPEN        2.365      9.600      0.0000     0.0000     1         
C_29245          RECT_OPEN        2.554      9.600      0.0000     0.0000     1         
C_29246          RECT_OPEN        2.554      9.600      0.0000     0.0000     1         
C_29247          RECT_OPEN        2.499      9.600      0.0000     0.0000     1         
C_29248          RECT_OPEN        2.499      9.600      0.0000     0.0000     1         
C_29249          RECT_OPEN        2.478      15.000     0.0000     0.0000     1         
C_29250          RECT_OPEN        2.478      15.000     0.0000     0.0000     1         
C_29251          RECT_OPEN        2.495      9.600      0.0000     0.0000     1         
C_29252          RECT_OPEN        2.495      9.600      0.0000     0.0000     1         
C_29253          RECT_OPEN        2.549      9.600      0.0000     0.0000     1         
C_29254          RECT_OPEN        2.549      9.600      0.0000     0.0000     1         
C_29255          RECT_OPEN        2.047      7.200      0.0000     0.0000     1         
C_29256          RECT_OPEN        2.047      7.200      0.0000     0.0000     1         
C_29257          RECT_OPEN        2.674      7.200      0.0000     0.0000     1         
C_29258          RECT_OPEN        2.674      7.200      0.0000     0.0000     1         
C_29259          RECT_OPEN        2.490      9.600      0.0000     0.0000     1         
C_29260          RECT_OPEN        2.490      9.600      0.0000     0.0000     1         
C_29261          RECT_OPEN        2.287      15.000     0.0000     0.0000     1         
C_29262          RECT_OPEN        2.287      15.000     0.0000     0.0000     1         
C_29263          RECT_OPEN        2.365      15.000     0.0000     0.0000     1         
C_29264          RECT_OPEN        2.365      15.000     0.0000     0.0000     1         
C_29268          RECT_OPEN        1.500      12.500     0.0000     0.0000     1         
C_29269          RECT_OPEN        2.023      12.500     0.0000     0.0000     1         
C_29270          RECT_CLOSED      1.500      12.500     0.0000     0.0000     1         
C_29271          RECT_OPEN        2.025      12.500     0.0000     0.0000     1         
C_29272          RECT_OPEN        2.303      15.000     0.0000     0.0000     1         
C_29273          RECT_CLOSED      2.599      15.000     0.0000     0.0000     1         
C_29277          RECT_OPEN        2.128      12.500     0.0000     0.0000     1         
C_29278          RECT_OPEN        2.151      14.000     0.0000     0.0000     1         
C_29279          RECT_OPEN        2.342      14.000     0.0000     0.0000     1         
C_29280          RECT_CLOSED      1.950      12.500     0.0000     0.0000     1         
C_29281          RECT_CLOSED      1.950      12.500     0.0000     0.0000     1         
C_29282          RECT_CLOSED      1.950      12.500     0.0000     0.0000     1         
C_29283          RECT_OPEN        2.034      12.500     0.0000     0.0000     1         
C_29284          RECT_OPEN        2.071      12.500     0.0000     0.0000     1         
C_29285          RECT_OPEN        2.058      12.500     0.0000     0.0000     1         
C_29286          RECT_OPEN        2.133      12.500     0.0000     0.0000     1         
C_29301          RECT_OPEN        2.301      14.000     0.0000     0.0000     1         
C_29302          RECT_OPEN        2.359      14.000     0.0000     0.0000     1         
C_29303          RECT_OPEN        2.338      14.000     0.0000     0.0000     1         
C_29318          RECT_OPEN        2.302      14.000     0.0000     0.0000     1         
C_29319          RECT_OPEN        2.281      14.000     0.0000     0.0000     1         
C_29320          RECT_OPEN        2.140      14.000     0.0000     0.0000     1         
C_29321          RECT_OPEN        2.242      14.000     0.0000     0.0000     1         
C_29340          RECT_OPEN        2.209      14.000     0.0000     0.0000     1         
C_29341          RECT_OPEN        2.188      14.000     0.0000     0.0000     1         
C_29342          RECT_OPEN        2.175      14.000     0.0000     0.0000     1         
C_29343          RECT_OPEN        2.184      14.000     0.0000     0.0000     1         
C_29344          RECT_CLOSED      3.000      8.000      0.0000     0.0000     1         
C_29345          RECT_CLOSED      3.000      8.000      0.0000     0.0000     1         
C_29346          RECT_CLOSED      1.853      4.500      0.0000     0.0000     1         
C_29347          RECT_CLOSED      1.853      4.500      0.0000     0.0000     1         
C_29348          RECT_CLOSED      1.910      4.500      0.0000     0.0000     1         
C_29349          RECT_CLOSED      1.910      4.500      0.0000     0.0000     1         
C_29350          RECT_CLOSED      1.823      4.500      0.0000     0.0000     1         
C_29351          RECT_CLOSED      1.823      4.500      0.0000     0.0000     1         
C_29352          RECT_CLOSED      2.086      3.500      0.0000     0.0000     1         
C_29353          RECT_CLOSED      2.086      3.500      0.0000     0.0000     1         
C_29354          RECT_CLOSED      2.099      3.500      0.0000     0.0000     1         
C_29355          RECT_CLOSED      2.099      3.500      0.0000     0.0000     1         
C_29356          RECT_CLOSED      1.970      3.334      0.0000     0.0000     1         
C_29357          RECT_CLOSED      1.970      3.334      0.0000     0.0000     1         
C_29358          RECT_CLOSED      2.177      4.500      0.0000     0.0000     1         
C_29359          RECT_CLOSED      2.177      4.500      0.0000     0.0000     1         
C_29360          RECT_CLOSED      1.818      4.500      0.0000     0.0000     1         
C_29361          RECT_CLOSED      1.818      4.500      0.0000     0.0000     1         
C_29362          RECT_CLOSED      2.193      3.500      0.0000     0.0000     1         
C_29363          RECT_CLOSED      2.193      3.500      0.0000     0.0000     1         
C_29364          RECT_CLOSED      2.193      3.500      0.0000     0.0000     1         
C_29365          RECT_CLOSED      2.193      3.500      0.0000     0.0000     1         
C_29366          RECT_CLOSED      2.184      3.500      0.0000     0.0000     1         
C_29367          RECT_CLOSED      2.184      3.500      0.0000     0.0000     1         
C_29368          RECT_CLOSED      2.064      3.500      0.0000     0.0000     1         
C_29369          RECT_CLOSED      2.064      3.500      0.0000     0.0000     1         
C_29370          RECT_CLOSED      2.753      3.500      0.0000     0.0000     1         
C_29371          RECT_CLOSED      2.753      3.500      0.0000     0.0000     1         
C_29372          RECT_CLOSED      2.772      3.500      0.0000     0.0000     1         
C_29373          RECT_CLOSED      2.772      3.500      0.0000     0.0000     1         
C_29374          RECT_CLOSED      2.319      3.500      0.0000     0.0000     1         
C_29375          RECT_CLOSED      2.319      3.500      0.0000     0.0000     1         
C_29376          RECT_OPEN        2.824      7.000      0.0000     0.0000     1         
C_29377          RECT_OPEN        2.824      7.000      0.0000     0.0000     1         
C_29378          RECT_CLOSED      2.110      3.500      0.0000     0.0000     1         
C_29379          RECT_CLOSED      2.110      3.500      0.0000     0.0000     1         
C_29380          RECT_CLOSED      2.110      3.500      0.0000     0.0000     1         
C_29381          RECT_CLOSED      2.110      3.500      0.0000     0.0000     1         
C_29382          RECT_CLOSED      1.997      3.500      0.0000     0.0000     1         
C_29383          RECT_CLOSED      1.997      3.500      0.0000     0.0000     1         
C_29384          RECT_CLOSED      2.085      4.000      0.0000     0.0000     1         
C_29385          RECT_CLOSED      2.085      4.000      0.0000     0.0000     1         
C_29386          RECT_CLOSED      2.136      4.000      0.0000     0.0000     1         
C_29387          RECT_CLOSED      2.136      4.000      0.0000     0.0000     1         
C_29388          RECT_OPEN        1.500      1.500      0.0000     0.0000     1         
C_29389          RECT_OPEN        1.500      1.500      0.0000     0.0000     1         
C_29390          RECT_OPEN        1.500      1.500      0.0000     0.0000     1         
C_29391          RECT_OPEN        1.500      1.500      0.0000     0.0000     1         
C_29392          RECT_OPEN        2.136      5.400      0.0000     0.0000     1         
C_29393          RECT_OPEN        2.136      5.400      0.0000     0.0000     1         
C_29394          RECT_OPEN        2.125      6.000      0.0000     0.0000     1         
C_29395          RECT_OPEN        2.125      6.000      0.0000     0.0000     1         
C_29396          RECT_OPEN        1.499      7.200      0.0000     0.0000     1         
C_29397          RECT_OPEN        1.499      7.200      0.0000     0.0000     1         
C_29398          RECT_OPEN        1.887      4.500      0.0000     0.0000     1         
C_29399          RECT_OPEN        1.887      4.500      0.0000     0.0000     1         
C_29400          RECT_OPEN        3.248      7.090      0.0000     0.0000     1         
C_29401          RECT_OPEN        3.248      7.090      0.0000     0.0000     1         
C_29402          RECT_OPEN        3.500      6.923      0.0000     0.0000     1         
C_29403          RECT_OPEN        3.500      6.923      0.0000     0.0000     1         
C_29404          RECT_OPEN        3.497      4.500      0.0000     0.0000     1         
C_29405          RECT_OPEN        3.497      4.500      0.0000     0.0000     1         
C_29406          RECT_CLOSED      3.024      4.000      0.0000     0.0000     1         
C_29407          RECT_CLOSED      3.024      4.000      0.0000     0.0000     1         
C_29408          RECT_CLOSED      3.067      4.000      0.0000     0.0000     1         
C_29409          RECT_CLOSED      3.067      4.000      0.0000     0.0000     1         
C_29410          RECT_CLOSED      3.301      4.000      0.0000     0.0000     1         
C_29411          RECT_CLOSED      3.301      4.000      0.0000     0.0000     1         
C_29412          RECT_OPEN        3.435      4.000      0.0000     0.0000     1         
C_29413          RECT_OPEN        3.435      4.000      0.0000     0.0000     1         
C_29414          RECT_OPEN        1.594      7.200      0.0000     0.0000     1         
C_29415          RECT_OPEN        1.594      7.200      0.0000     0.0000     1         
C_29416          RECT_OPEN        1.561      7.200      0.0000     0.0000     1         
C_29417          RECT_OPEN        1.561      7.200      0.0000     0.0000     1         
C_29418          RECT_OPEN        1.525      7.200      0.0000     0.0000     1         
C_29419          RECT_OPEN        1.525      7.200      0.0000     0.0000     1         
C_29420          RECT_OPEN        1.633      7.200      0.0000     0.0000     1         
C_29421          RECT_OPEN        1.633      7.200      0.0000     0.0000     1         
C_29422          RECT_OPEN        1.603      4.800      0.0000     0.0000     1         
C_29423          RECT_OPEN        1.603      4.800      0.0000     0.0000     1         
C_29424          RECT_OPEN        1.621      7.200      0.0000     0.0000     1         
C_29425          RECT_OPEN        1.621      7.200      0.0000     0.0000     1         
C_29426          RECT_CLOSED      1.611      4.800      0.0000     0.0000     1         
C_29427          RECT_CLOSED      1.611      4.800      0.0000     0.0000     1         
C_29428          RECT_OPEN        1.436      4.800      0.0000     0.0000     1         
C_29429          RECT_OPEN        1.436      4.800      0.0000     0.0000     1         
C_29431          RECT_CLOSED      1.405      4.800      0.0000     0.0000     1         
C_29433          RECT_OPEN        1.468      4.800      0.0000     0.0000     1         
C_29434          RECT_OPEN        3.057      7.090      0.0000     0.0000     1         
C_29435          RECT_OPEN        3.057      7.090      0.0000     0.0000     1         
C_29436          RECT_OPEN        3.106      7.000      0.0000     0.0000     1         
C_29438          RECT_CLOSED      3.720      4.000      0.0000     0.0000     1         
C_29439          RECT_CLOSED      3.720      4.000      0.0000     0.0000     1         
C_29440          RECT_OPEN        3.894      4.000      0.0000     0.0000     1         
C_29441          RECT_OPEN        3.894      4.000      0.0000     0.0000     1         
C_29442          RECT_OPEN        3.889      4.000      0.0000     0.0000     1         
C_29443          RECT_OPEN        3.889      4.000      0.0000     0.0000     1         
C_29445          RECT_OPEN        1.161      4.800      0.0000     0.0000     1         
C_29447          RECT_OPEN        1.498      4.800      0.0000     0.0000     1         
C_29449          RECT_CLOSED      1.503      4.800      0.0000     0.0000     1         
C_29450          RECT_OPEN        3.653      4.000      0.0000     0.0000     1         
C_29451          RECT_OPEN        3.653      4.000      0.0000     0.0000     1         
C_29454          RECT_OPEN        3.207      4.000      0.0000     0.0000     1         
C_29455          RECT_OPEN        3.207      4.000      0.0000     0.0000     1         
C_29456          RECT_OPEN        2.862      4.000      0.0000     0.0000     1         
C_29457          RECT_OPEN        2.862      4.000      0.0000     0.0000     1         
C_29458          RECT_OPEN        2.926      4.000      0.0000     0.0000     1         
C_29459          RECT_OPEN        2.926      4.000      0.0000     0.0000     1         
C_29464          RECT_OPEN        2.911      4.000      0.0000     0.0000     1         
C_29465          RECT_OPEN        2.911      4.000      0.0000     0.0000     1         
C_29466          RECT_OPEN        3.045      4.000      0.0000     0.0000     1         
C_29467          RECT_OPEN        3.045      4.000      0.0000     0.0000     1         
C_29468          RECT_OPEN        3.179      3.512      0.0000     0.0000     1         
C_29469          RECT_OPEN        3.179      3.512      0.0000     0.0000     1         
C_29470          RECT_OPEN        3.014      3.135      0.0000     0.0000     1         
C_29471          RECT_OPEN        3.014      3.135      0.0000     0.0000     1         
C_29472          RECT_OPEN        2.388      3.226      0.0000     0.0000     1         
C_29473          RECT_OPEN        2.388      3.226      0.0000     0.0000     1         
C_29474          RECT_OPEN        2.662      2.770      0.0000     0.0000     1         
C_29475          RECT_OPEN        2.662      2.770      0.0000     0.0000     1         
C_29476          RECT_OPEN        2.337      2.834      0.0000     0.0000     1         
C_29477          RECT_OPEN        2.337      2.834      0.0000     0.0000     1         
C_29478          RECT_CLOSED      2.000      2.000      0.0000     0.0000     1         
C_29479          RECT_CLOSED      2.000      2.000      0.0000     0.0000     1         
C_29480          RECT_CLOSED      2.000      2.000      0.0000     0.0000     1         
C_29481          RECT_CLOSED      2.000      2.000      0.0000     0.0000     1         
C_29482          RECT_OPEN        2.323      2.388      0.0000     0.0000     1         
C_29483          RECT_OPEN        2.323      2.388      0.0000     0.0000     1         
C_29484          RECT_OPEN        2.475      1.969      0.0000     0.0000     1         
C_29485          RECT_OPEN        2.475      1.969      0.0000     0.0000     1         
C_29486          RECT_OPEN        2.346      2.055      0.0000     0.0000     1         
C_29487          RECT_OPEN        2.346      2.055      0.0000     0.0000     1         
C_29488          RECT_CLOSED      2.000      2.000      0.0000     0.0000     1         
C_29489          RECT_CLOSED      2.000      2.000      0.0000     0.0000     1         
C_29490          RECT_CLOSED      2.000      2.000      0.0000     0.0000     1         
C_29491          RECT_CLOSED      2.000      2.000      0.0000     0.0000     1         
C_29492          RECT_CLOSED      2.000      2.000      0.0000     0.0000     1         
C_29493          RECT_CLOSED      2.000      2.000      0.0000     0.0000     1         
C_29494          RECT_CLOSED      2.000      2.000      0.0000     0.0000     1         
C_29495          RECT_CLOSED      2.000      2.000      0.0000     0.0000     1         
C_29496          RECT_CLOSED      2.000      2.000      0.0000     0.0000     1         
C_29497          RECT_CLOSED      2.000      2.000      0.0000     0.0000     1         
C_29498          RECT_CLOSED      2.000      2.000      0.0000     0.0000     1         
C_29499          RECT_CLOSED      2.000      2.000      0.0000     0.0000     1         
C_29500          RECT_CLOSED      2.000      2.000      0.0000     0.0000     1         
C_29501          RECT_CLOSED      2.000      2.000      0.0000     0.0000     1         
C_29523          RECT_CLOSED      2.258      5.500      0.0000     0.0000     1         
C_29524          RECT_CLOSED      2.293      5.500      0.0000     0.0000     1         
C_29525          RECT_CLOSED      2.318      5.500      0.0000     0.0000     1         
C_29526          RECT_CLOSED      2.000      2.000      0.0000     0.0000     1         
C_29527          RECT_CLOSED      2.000      2.000      0.0000     0.0000     1         
C_29528          RECT_CLOSED      2.000      2.000      0.0000     0.0000     1         
C_29530          RECT_CLOSED      2.000      2.000      0.0000     0.0000     1         
C_29531          RECT_CLOSED      2.000      2.000      0.0000     0.0000     1         
C_29532          RECT_CLOSED      1.811      5.500      0.0000     0.0000     1         
C_29533          RECT_CLOSED      1.539      5.500      0.0000     0.0000     1         
C_29534          RECT_CLOSED      2.226      5.500      0.0000     0.0000     1         
C_29535          RECT_CLOSED      2.104      5.500      0.0000     0.0000     1         
C_29536          RECT_CLOSED      2.000      2.000      0.0000     0.0000     1         
C_29537          RECT_CLOSED      2.000      2.000      0.0000     0.0000     1         
C_29538          RECT_CLOSED      2.000      2.000      0.0000     0.0000     1         
C_29539          RECT_CLOSED      2.000      2.000      0.0000     0.0000     1         
C_29540          RECT_CLOSED      2.000      2.000      0.0000     0.0000     1         
C_29541          RECT_CLOSED      2.000      2.000      0.0000     0.0000     1         
C_29542          RECT_CLOSED      2.000      2.000      0.0000     0.0000     1         
C_29543          RECT_CLOSED      2.000      2.000      0.0000     0.0000     1         
C_29544          RECT_CLOSED      2.000      2.000      0.0000     0.0000     1         
C_29545          RECT_CLOSED      2.000      2.000      0.0000     0.0000     1         
C_29546          RECT_CLOSED      2.000      2.000      0.0000     0.0000     1         
C_29547          RECT_CLOSED      2.000      2.000      0.0000     0.0000     1         
C_29548          RECT_CLOSED      2.000      2.000      0.0000     0.0000     1         
C_29549          RECT_CLOSED      2.000      2.000      0.0000     0.0000     1         
C_29550          RECT_CLOSED      2.000      2.000      0.0000     0.0000     1         
C_29551          RECT_CLOSED      2.000      2.000      0.0000     0.0000     1         
C_29552          RECT_CLOSED      1.500      2.500      0.0000     0.0000     1         
C_29553          RECT_CLOSED      1.500      2.500      0.0000     0.0000     1         
C_29554          RECT_CLOSED      1.500      2.500      0.0000     0.0000     1         
C_29555          RECT_CLOSED      1.500      2.500      0.0000     0.0000     1         
C_29556          RECT_CLOSED      1.500      2.500      0.0000     0.0000     1         
C_29557          RECT_CLOSED      3.465      13.000     0.0000     0.0000     1         
C_29558          RECT_CLOSED      2.564      6.000      0.0000     0.0000     1         
C_29559          RECT_CLOSED      3.771      22.000     0.0000     0.0000     1         
C_29560          RECT_OPEN        2.109      4.500      0.0000     0.0000     1         
C_29561          RECT_OPEN        3.058      5.782      0.0000     0.0000     1         
C_29562          RECT_OPEN        2.546      5.000      0.0000     0.0000     1         
C_29563          RECT_OPEN        2.735      4.456      0.0000     0.0000     1         
C_29564          RECT_OPEN        1.997      2.210      0.0000     0.0000     1         
C_29565          RECT_OPEN        2.129      3.500      0.0000     0.0000     1         
C_29566          RECT_OPEN        1.386      2.143      0.0000     0.0000     1         
C_29567          RECT_OPEN        1.515      2.003      0.0000     0.0000     1         
C_29568          RECT_OPEN        1.536      2.104      0.0000     0.0000     1         
C_29569          RECT_OPEN        1.586      2.675      0.0000     0.0000     1         
C_29570          RECT_CLOSED      2.102      2.700      0.0000     0.0000     1         
C_29571          RECT_CLOSED      2.741      2.700      0.0000     0.0000     1         
C_29572          RECT_CLOSED      2.587      5.500      0.0000     0.0000     1         
C_29573          RECT_CLOSED      2.354      3.000      0.0000     0.0000     1         
C_29574          RECT_OPEN        2.077      3.538      0.0000     0.0000     1         
C_29575          RECT_OPEN        2.229      3.214      0.0000     0.0000     1         
C_29576          RECT_OPEN        3.127      3.400      0.0000     0.0000     1         
C_29577          RECT_OPEN        3.095      3.400      0.0000     0.0000     1         
C_29578          RECT_OPEN        2.320      3.200      0.0000     0.0000     1         
C_29579          RECT_OPEN        3.053      3.500      0.0000     0.0000     1         
C_29580          RECT_OPEN        2.246      3.200      0.0000     0.0000     1         
C_29581          RECT_OPEN        2.723      4.746      0.0000     0.0000     1         
C_29582          RECT_OPEN        2.695      5.930      0.0000     0.0000     1         
C_29583          RECT_OPEN        2.515      4.960      0.0000     0.0000     1         
C_29584          RECT_OPEN        2.475      3.214      0.0000     0.0000     1         
C_29585          RECT_OPEN        2.378      6.910      0.0000     0.0000     1         
C_29586          RECT_OPEN        1.998      5.360      0.0000     0.0000     1         
C_29587          RECT_OPEN        2.333      6.000      0.0000     0.0000     1         
C_29588          RECT_OPEN        2.560      4.302      0.0000     0.0000     1         
C_29589          RECT_CLOSED      3.000      6.000      0.0000     0.0000     1         
C_29590          RECT_CLOSED      2.296      4.000      0.0000     0.0000     1         
C_29591          RECT_CLOSED      2.029      4.000      0.0000     0.0000     1         
C_29592          RECT_OPEN        2.277      3.925      0.0000     0.0000     1         
C_29593          RECT_OPEN        2.237      3.742      0.0000     0.0000     1         
C_29594          RECT_CLOSED      2.243      4.000      0.0000     0.0000     1         
C_29595          RECT_CLOSED      2.408      4.000      0.0000     0.0000     1         
C_29596          RECT_OPEN        2.482      2.737      0.0000     0.0000     1         
C_29597          RECT_OPEN        2.301      2.737      0.0000     0.0000     1         
C_29598          RECT_OPEN        2.383      2.053      0.0000     0.0000     1         
C_29599          RECT_OPEN        2.383      2.894      0.0000     0.0000     1         
C_29600          RECT_CLOSED      2.557      2.500      0.0000     0.0000     1         
C_29601          RECT_CLOSED      2.375      2.500      0.0000     0.0000     1         
C_29602          RECT_OPEN        2.460      4.200      0.0000     0.0000     1         
C_29603          RECT_OPEN        2.329      3.688      0.0000     0.0000     1         
C_29604          RECT_OPEN        2.524      2.500      0.0000     0.0000     1         
C_29605          RECT_OPEN        1.606      3.604      0.0000     0.0000     1         
C_29606          RECT_OPEN        1.571      3.548      0.0000     0.0000     1         
C_29607          RECT_OPEN        1.362      2.742      0.0000     0.0000     1         
C_29608          RECT_OPEN        1.440      2.824      0.0000     0.0000     1         
C_29609          RECT_OPEN        1.203      3.000      0.0000     0.0000     1         
C_29610          RECT_OPEN        2.505      4.500      0.0000     0.0000     1         
C_29611          RECT_OPEN        2.435      4.832      0.0000     0.0000     1         
C_29612          RECT_CLOSED      2.093      4.800      0.0000     0.0000     1         
C_29613          RECT_CLOSED      2.082      4.800      0.0000     0.0000     1         
C_29614          RECT_CLOSED      1.898      3.500      0.0000     0.0000     1         
C_29615          RECT_CLOSED      1.888      3.500      0.0000     0.0000     1         
C_29616          RECT_CLOSED      3.000      6.000      0.0000     0.0000     1         
C_29617          RECT_OPEN        1.768      4.000      0.0000     0.0000     1         
C_29618          RECT_CLOSED      2.152      2.600      0.0000     0.0000     1         
C_29619          RECT_CLOSED      1.789      3.500      0.0000     0.0000     1         
C_29620          RECT_CLOSED      1.950      3.000      0.0000     0.0000     1         
C_29621          RECT_CLOSED      2.271      3.000      0.0000     0.0000     1         
C_29622          RECT_CLOSED      2.303      3.000      0.0000     0.0000     1         
C_29623          RECT_CLOSED      1.820      4.000      0.0000     0.0000     1         
C_29624          RECT_CLOSED      1.660      4.000      0.0000     0.0000     1         
C_29625          RECT_OPEN        2.272      3.349      0.0000     0.0000     1         
C_29626          RECT_OPEN        2.509      2.127      0.0000     0.0000     1         
C_29627          RECT_OPEN        1.936      3.374      0.0000     0.0000     1         
C_29628          RECT_OPEN        1.919      6.774      0.0000     0.0000     1         
C_29629          RECT_OPEN        2.108      4.853      0.0000     0.0000     1         
C_29630          RECT_OPEN        1.997      5.090      0.0000     0.0000     1         
C_29631          RECT_OPEN        2.047      2.703      0.0000     0.0000     1         
C_29632          RECT_OPEN        1.755      3.499      0.0000     0.0000     1         
C_29633          RECT_OPEN        1.505      2.500      0.0000     0.0000     1         
C_29634          RECT_OPEN        1.508      3.044      0.0000     0.0000     1         
C_29635          RECT_OPEN        1.553      3.097      0.0000     0.0000     1         
C_29636          RECT_OPEN        1.512      2.965      0.0000     0.0000     1         
C_29637          RECT_CLOSED      1.528      3.000      0.0000     0.0000     1         
C_29638          RECT_CLOSED      1.480      3.000      0.0000     0.0000     1         
C_29639          RECT_OPEN        1.266      3.269      0.0000     0.0000     1         
C_29640          RECT_OPEN        1.234      3.147      0.0000     0.0000     1         
C_29641          RECT_OPEN        1.529      4.000      0.0000     0.0000     1         
C_29642          RECT_OPEN        1.570      4.000      0.0000     0.0000     1         
C_29646          RECT_CLOSED      3.000      6.000      0.0000     0.0000     1         
C_29647          RECT_OPEN        2.059      2.364      0.0000     0.0000     1         
C_29648          RECT_OPEN        1.899      2.504      0.0000     0.0000     1         
C_29649          RECT_CLOSED      2.256      5.500      0.0000     0.0000     1         
C_29650          RECT_OPEN        1.691      2.500      0.0000     0.0000     1         
C_29651          RECT_OPEN        1.659      2.500      0.0000     0.0000     1         
C_29652          RECT_OPEN        1.391      2.500      0.0000     0.0000     1         
C_29653          RECT_OPEN        1.600      2.500      0.0000     0.0000     1         
C_29654          RECT_OPEN        1.369      2.500      0.0000     0.0000     1         
C_29655          RECT_OPEN        1.283      3.185      0.0000     0.0000     1         
C_29656          RECT_OPEN        1.321      3.185      0.0000     0.0000     1         
C_29657          RECT_OPEN        1.432      3.166      0.0000     0.0000     1         
C_29658          RECT_OPEN        1.523      3.341      0.0000     0.0000     1         
C_29659          RECT_CLOSED      2.403      3.000      0.0000     0.0000     1         
C_29660          RECT_CLOSED      2.275      3.000      0.0000     0.0000     1         
C_29661          RECT_OPEN        2.149      3.000      0.0000     0.0000     1         
C_29662          RECT_CLOSED      1.696      3.000      0.0000     0.0000     1         
C_29663          RECT_CLOSED      1.621      3.000      0.0000     0.0000     1         
C_29664          RECT_CLOSED      1.669      3.000      0.0000     0.0000     1         
C_29665          RECT_CLOSED      3.000      4.000      0.0000     0.0000     1         
C_29666          RECT_OPEN        1.598      2.500      0.0000     0.0000     1         
C_29667          RECT_OPEN        1.540      2.500      0.0000     0.0000     1         
C_29668          RECT_OPEN        1.467      2.500      0.0000     0.0000     1         
C_29669          RECT_CLOSED      1.743      3.000      0.0000     0.0000     1         
C_29670          RECT_CLOSED      1.650      3.000      0.0000     0.0000     1         
C_29671          RECT_CLOSED      1.835      4.000      0.0000     0.0000     1         
C_29672          RECT_CLOSED      1.965      4.000      0.0000     0.0000     1         
C_29673          RECT_OPEN        1.755      3.000      0.0000     0.0000     1         
C_29674          RECT_OPEN        1.667      3.000      0.0000     0.0000     1         
C_29677          RECT_CLOSED      3.000      4.000      0.0000     0.0000     1         
C_29678          RECT_OPEN        1.576      2.500      0.0000     0.0000     1         
C_29679          RECT_OPEN        1.571      2.500      0.0000     0.0000     1         
C_29680          RECT_OPEN        1.698      2.500      0.0000     0.0000     1         
C_29681          RECT_OPEN        1.498      2.500      0.0000     0.0000     1         
C_29682          RECT_OPEN        2.042      3.000      0.0000     0.0000     1         
C_29683          RECT_OPEN        1.952      3.000      0.0000     0.0000     1         
C_29684          RECT_OPEN        2.028      3.000      0.0000     0.0000     1         
C_29685          RECT_OPEN        1.695      1.800      0.0000     0.0000     1         
C_29686          RECT_OPEN        1.753      1.800      0.0000     0.0000     1         
C_29687          RECT_OPEN        1.847      1.800      0.0000     0.0000     1         
C_29688          RECT_OPEN        1.909      1.800      0.0000     0.0000     1         
C_29689          RECT_OPEN        1.986      1.800      0.0000     0.0000     1         
C_29690          RECT_OPEN        2.011      1.800      0.0000     0.0000     1         
C_29691          RECT_OPEN        2.030      1.800      0.0000     0.0000     1         
C_29692          RECT_CLOSED      3.000      4.000      0.0000     0.0000     1         
C_29693          RECT_OPEN        1.867      3.000      0.0000     0.0000     1         
C_29694          RECT_OPEN        2.080      1.800      0.0000     0.0000     1         
C_29695          RECT_CLOSED      3.000      4.000      0.0000     0.0000     1         
C_29696          RECT_OPEN        3.097      3.000      0.0000     0.0000     1         
C_29697          RECT_CLOSED      2.000      3.000      0.0000     0.0000     1         
C_29699          RECT_CLOSED      1.500      2.500      0.0000     0.0000     1         
C_29700          RECT_CLOSED      2.000      2.000      0.0000     0.0000     1         
C_29701          RECT_CLOSED      2.000      2.000      0.0000     0.0000     1         
C_29702          RECT_OPEN        2.728      8.000      0.0000     0.0000     1         
C_29703          RECT_OPEN        2.000      2.500      0.0000     0.0000     1         
C_29704          RECT_OPEN        2.509      8.629      0.0000     0.0000     1         
C_29705          RECT_OPEN        2.691      8.000      0.0000     0.0000     1         
C_29706          RECT_OPEN        2.000      5.906      0.0000     0.0000     1         
C_29707          RECT_OPEN        1.648      3.000      0.0000     0.0000     1         
C_29708          RECT_OPEN        2.857      3.000      0.0000     0.0000     1         
C_29709          RECT_OPEN        2.000      4.711      0.0000     0.0000     1         
C_29710          RECT_OPEN        2.000      2.547      0.0000     0.0000     1         
C_29711          RECT_CLOSED      1.615      3.000      0.0000     0.0000     1         
C_29712          RECT_CLOSED      1.589      3.000      0.0000     0.0000     1         
C_29713          RECT_OPEN        1.549      3.000      0.0000     0.0000     1         
C_29714          RECT_OPEN        1.408      3.000      0.0000     0.0000     1         
C_29715          RECT_OPEN        2.000      4.563      0.0000     0.0000     1         
C_29716          RECT_CLOSED      2.313      5.000      0.0000     0.0000     1         
C_29717          RECT_OPEN        2.260      5.000      0.0000     0.0000     1         
C_29718          RECT_OPEN        2.000      4.860      0.0000     0.0000     1         
C_29719          RECT_OPEN        2.000      5.000      0.0000     0.0000     1         
C_29720          RECT_OPEN        2.000      4.200      0.0000     0.0000     1         
C_29721          RECT_OPEN        2.000      4.200      0.0000     0.0000     1         
C_29722          RECT_OPEN        1.500      3.000      0.0000     0.0000     1         
C_29723          RECT_OPEN        1.294      3.000      0.0000     0.0000     1         
C_29724          RECT_OPEN        1.038      3.000      0.0000     0.0000     1         
C_29725          RECT_OPEN        0.741      4.917      0.0000     0.0000     1         
C_29726          RECT_OPEN        0.954      3.000      0.0000     0.0000     1         
C_29727          RECT_OPEN        1.061      3.000      0.0000     0.0000     1         
C_29728          RECT_OPEN        2.000      4.200      0.0000     0.0000     1         
C_29729          RECT_OPEN        2.000      4.200      0.0000     0.0000     1         
C_29730          RECT_OPEN        2.000      4.200      0.0000     0.0000     1         
C_29731          RECT_OPEN        2.000      4.200      0.0000     0.0000     1         
C_29732          RECT_OPEN        2.000      4.200      0.0000     0.0000     1         
C_29733          RECT_OPEN        2.000      5.627      0.0000     0.0000     1         
C_29734          RECT_OPEN        2.000      5.052      0.0000     0.0000     1         
C_29735          RECT_OPEN        2.000      4.200      0.0000     0.0000     1         
C_29736          RECT_OPEN        2.859      3.245      0.0000     0.0000     1         
C_29737          RECT_CLOSED      2.000      6.000      0.0000     0.0000     1         
C_29738          RECT_CLOSED      2.000      6.000      0.0000     0.0000     1         
C_29739          RECT_OPEN        2.000      4.200      0.0000     0.0000     1         
C_29740          RECT_OPEN        2.000      4.200      0.0000     0.0000     1         
C_29741          RECT_OPEN        2.000      4.200      0.0000     0.0000     1         
C_29742          RECT_OPEN        2.000      4.200      0.0000     0.0000     1         
C_29743          RECT_CLOSED      2.000      4.200      0.0000     0.0000     1         
C_29744          RECT_CLOSED      2.000      6.000      0.0000     0.0000     1         
C_29745          RECT_CLOSED      2.000      6.000      0.0000     0.0000     1         
C_29746          RECT_OPEN        2.000      5.922      0.0000     0.0000     1         
C_29747          RECT_OPEN        2.000      6.204      0.0000     0.0000     1         
C_29748          RECT_OPEN        2.114      5.444      0.0000     0.0000     1         
C_29749          RECT_OPEN        2.421      5.444      0.0000     0.0000     1         
C_29750          RECT_OPEN        2.873      5.524      0.0000     0.0000     1         
C_29751          RECT_OPEN        2.635      5.460      0.0000     0.0000     1         
C_29752          RECT_CLOSED      2.000      3.000      0.0000     0.0000     1         
C_29753          RECT_OPEN        2.481      5.077      0.0000     0.0000     1         
C_29754          RECT_OPEN        2.208      3.288      0.0000     0.0000     1         
C_29755          RECT_OPEN        2.209      3.288      0.0000     0.0000     1         
C_29756          RECT_OPEN        2.305      3.413      0.0000     0.0000     1         
C_29757          RECT_OPEN        2.079      3.456      0.0000     0.0000     1         
C_29758          RECT_OPEN        1.976      3.409      0.0000     0.0000     1         
C_29761          RECT_CLOSED      2.000      3.000      0.0000     0.0000     1         
C_29763          RECT_CLOSED      2.000      3.000      0.0000     0.0000     1         
C_29764          RECT_CLOSED      2.000      3.000      0.0000     0.0000     1         
C_29765          RECT_CLOSED      2.000      3.000      0.0000     0.0000     1         
C_29766          RECT_CLOSED      2.000      3.000      0.0000     0.0000     1         
C_29767          RECT_CLOSED      2.000      3.000      0.0000     0.0000     1         
C_29768          RECT_CLOSED      2.000      3.000      0.0000     0.0000     1         
C_30001          RECT_CLOSED      3.102      5.000      0.0000     0.0000     1         
C_30002          RECT_CLOSED      3.238      5.000      0.0000     0.0000     1         
C_30006          RECT_CLOSED      3.283      5.000      0.0000     0.0000     1         
C_30008          RECT_CLOSED      3.409      5.000      0.0000     0.0000     1         
C_30009          RECT_CLOSED      3.538      5.000      0.0000     0.0000     1         
C_30010          RECT_CLOSED      3.621      5.000      0.0000     0.0000     1         
C_30024          RECT_CLOSED      3.881      5.000      0.0000     0.0000     1         
C_30025          RECT_CLOSED      3.956      5.000      0.0000     0.0000     1         
C_30026          RECT_OPEN        4.422      27.500     0.0000     0.0000     1         
C_30027          RECT_OPEN        3.327      27.500     0.0000     0.0000     1         
C_30035          RECT_OPEN        3.340      27.500     0.0000     0.0000     1         
C_30036          RECT_OPEN        3.353      27.500     0.0000     0.0000     1         
C_30037          RECT_OPEN        3.367      27.500     0.0000     0.0000     1         
C_30038          RECT_OPEN        3.375      27.500     0.0000     0.0000     1         
C_30039          RECT_OPEN        2.201      14.000     0.0000     0.0000     1         
C_30040          RECT_OPEN        2.223      14.000     0.0000     0.0000     1         
C_30041          RECT_OPEN        2.179      14.000     0.0000     0.0000     1         
C_30042          RECT_OPEN        2.153      14.000     0.0000     0.0000     1         
C_30043          RECT_CLOSED      3.000      8.000      0.0000     0.0000     1         
C_30044          RECT_OPEN        2.211      14.000     0.0000     0.0000     1         
C_30045          RECT_OPEN        2.280      14.000     0.0000     0.0000     1         
C_30046          RECT_OPEN        2.294      14.000     0.0000     0.0000     1         
C_30047          RECT_CLOSED      2.458      8.000      0.0000     0.0000     1         
C_30048          RECT_CLOSED      3.000      8.000      0.0000     0.0000     1         
C_30049          RECT_CLOSED      3.000      8.000      0.0000     0.0000     1         
C_30050          RECT_OPEN        2.362      14.000     0.0000     0.0000     1         
C_30051          RECT_OPEN        2.475      14.000     0.0000     0.0000     1         
C_30052          RECT_OPEN        2.442      14.000     0.0000     0.0000     1         
C_30053          RECT_OPEN        2.312      14.000     0.0000     0.0000     1         
C_30054          RECT_OPEN        2.162      14.000     0.0000     0.0000     1         
C_30055          RECT_OPEN        2.180      14.000     0.0000     0.0000     1         
C_30056          RECT_OPEN        2.165      14.000     0.0000     0.0000     1         
C_30057          RECT_CLOSED      2.321      8.000      0.0000     0.0000     1         
C_30058          RECT_OPEN        2.354      24.000     0.0000     0.0000     1         
C_30059          RECT_OPEN        2.455      24.000     0.0000     0.0000     1         
C_30060          RECT_OPEN        2.492      24.000     0.0000     0.0000     1         
C_30061          RECT_OPEN        2.200      14.000     0.0000     0.0000     1         
C_30062          RECT_OPEN        3.036      14.000     0.0000     0.0000     1         
C_30063          RECT_CLOSED      3.064      21.600     0.0000     0.0000     1         
C_30064          RECT_CLOSED      2.977      8.000      0.0000     0.0000     1         
C_30065          RECT_OPEN        3.292      24.000     0.0000     0.0000     1         
C_30066          RECT_CLOSED      2.680      8.000      0.0000     0.0000     1         
C_30068          RECT_OPEN        2.352      24.000     0.0000     0.0000     1         
C_30069          RECT_OPEN        2.367      24.000     0.0000     0.0000     1         
C_30070          RECT_OPEN        2.527      24.000     0.0000     0.0000     1         
C_30071          RECT_OPEN        2.472      24.000     0.0000     0.0000     1         
C_30072          RECT_OPEN        2.345      24.000     0.0000     0.0000     1         
C_30073          RECT_OPEN        2.388      24.000     0.0000     0.0000     1         
C_30074          RECT_OPEN        2.414      24.000     0.0000     0.0000     1         
C_30075          RECT_OPEN        2.469      24.000     0.0000     0.0000     1         
C_30076          RECT_OPEN        2.516      24.000     0.0000     0.0000     1         
C_30080          RECT_OPEN        2.398      24.000     0.0000     0.0000     1         
C_30081          RECT_OPEN        2.424      24.000     0.0000     0.0000     1         
C_30082          RECT_OPEN        2.450      24.000     0.0000     0.0000     1         
C_30083          RECT_OPEN        2.476      24.000     0.0000     0.0000     1         
C_30084          RECT_OPEN        2.518      27.000     0.0000     0.0000     1         
C_30109          RECT_CLOSED      3.501      5.000      0.0000     0.0000     1         
C_30110          RECT_OPEN        2.562      27.000     0.0000     0.0000     1         
C_30111          RECT_OPEN        2.605      27.000     0.0000     0.0000     1         
C_30112          RECT_OPEN        2.677      27.000     0.0000     0.0000     1         
C_30113          RECT_OPEN        2.693      27.000     0.0000     0.0000     1         
C_30114          RECT_OPEN        2.704      27.000     0.0000     0.0000     1         
C_30115          RECT_CLOSED      4.205      27.000     0.0000     0.0000     1         
C_30116          RECT_OPEN        4.235      27.000     0.0000     0.0000     1         
C_30117          RECT_OPEN        3.714      27.000     0.0000     0.0000     1         
C_30118          RECT_OPEN        3.875      27.500     0.0000     0.0000     1         
C_30119          RECT_CLOSED      4.401      27.500     0.0000     0.0000     1         
C_30120          RECT_CLOSED      4.416      27.500     0.0000     0.0000     1         
C_30141          RECT_CLOSED      2.869      3.000      0.0000     0.0000     1         
C_30143          RECT_OPEN        3.651      7.500      0.0000     0.0000     1         
C_30144          RECT_CLOSED      3.799      7.500      0.0000     0.0000     1         
C_30145          RECT_CLOSED      3.864      8.000      0.0000     0.0000     1         
C_30146          RECT_OPEN        4.831      7.500      0.0000     0.0000     1         
C_30148          RECT_CLOSED      2.500      3.000      0.0000     0.0000     1         
C_30149          RECT_CLOSED      4.281      7.500      0.0000     0.0000     1         
C_30150          RECT_OPEN        4.386      7.500      0.0000     0.0000     1         
C_30151          RECT_OPEN        3.322      7.500      0.0000     0.0000     1         
C_30152          RECT_OPEN        4.538      7.500      0.0000     0.0000     1         
C_30153          RECT_CLOSED      3.000      8.000      0.0000     0.0000     1         
C_30156          RECT_OPEN        3.390      7.500      0.0000     0.0000     1         
C_30157          RECT_OPEN        4.182      7.500      0.0000     0.0000     1         
C_30158          RECT_OPEN        4.077      7.500      0.0000     0.0000     1         
C_30159          RECT_OPEN        4.246      7.500      0.0000     0.0000     1         
C_30160          RECT_OPEN        4.152      7.500      0.0000     0.0000     1         
C_30161          RECT_OPEN        3.127      7.500      0.0000     0.0000     1         
C_30162          RECT_CLOSED      4.030      7.500      0.0000     0.0000     1         
C_30163          RECT_CLOSED      3.960      7.500      0.0000     0.0000     1         
C_30164          RECT_OPEN        4.462      7.500      0.0000     0.0000     1         
C_30165          RECT_OPEN        3.145      7.500      0.0000     0.0000     1         
C_30166          RECT_OPEN        3.412      7.500      0.0000     0.0000     1         
C_30167          RECT_OPEN        3.201      7.500      0.0000     0.0000     1         
C_30168          RECT_OPEN        3.365      7.500      0.0000     0.0000     1         
C_30169          RECT_OPEN        4.254      6.500      0.0000     0.0000     1         
C_30170          RECT_OPEN        4.804      6.500      0.0000     0.0000     1         
C_30171          RECT_OPEN        4.055      6.500      0.0000     0.0000     1         
C_30172          RECT_OPEN        5.037      6.500      0.0000     0.0000     1         
C_30173          RECT_OPEN        5.759      6.500      0.0000     0.0000     1         
C_30174          RECT_CLOSED      5.979      6.500      0.0000     0.0000     1         
C_30175          RECT_OPEN        3.102      6.500      0.0000     0.0000     1         
C_30176          RECT_OPEN        3.282      6.500      0.0000     0.0000     1         
C_30177          RECT_OPEN        3.656      6.500      0.0000     0.0000     1         
C_30178          RECT_OPEN        3.669      6.500      0.0000     0.0000     1         
C_30179          RECT_OPEN        2.822      6.500      0.0000     0.0000     1         
C_30180          RECT_OPEN        3.319      6.500      0.0000     0.0000     1         
C_30181          RECT_OPEN        4.087      6.500      0.0000     0.0000     1         
C_30182          RECT_OPEN        4.231      6.500      0.0000     0.0000     1         
C_30183          RECT_OPEN        2.429      7.500      0.0000     0.0000     1         
C_30184          RECT_OPEN        3.446      7.500      0.0000     0.0000     1         
C_30185          RECT_OPEN        1.737      7.500      0.0000     0.0000     1         
C_30186          RECT_OPEN        3.452      7.500      0.0000     0.0000     1         
C_30187          RECT_OPEN        1.750      7.500      0.0000     0.0000     1         
C_30188          RECT_OPEN        1.871      7.500      0.0000     0.0000     1         
C_30189          RECT_OPEN        1.919      7.500      0.0000     0.0000     1         
C_30190          RECT_OPEN        1.747      7.500      0.0000     0.0000     1         
C_30191          RECT_OPEN        2.655      7.500      0.0000     0.0000     1         
C_30192          RECT_OPEN        2.586      7.500      0.0000     0.0000     1         
C_30193          RECT_OPEN        2.329      7.500      0.0000     0.0000     1         
C_30194          RECT_OPEN        2.300      7.500      0.0000     0.0000     1         
C_30195          RECT_OPEN        2.462      7.500      0.0000     0.0000     1         
C_30196          RECT_OPEN        2.811      7.500      0.0000     0.0000     1         
C_30197          RECT_OPEN        2.733      7.500      0.0000     0.0000     1         
C_30198          RECT_OPEN        2.919      7.500      0.0000     0.0000     1         
C_30199          RECT_OPEN        6.013      7.500      0.0000     0.0000     1         
C_30200          RECT_OPEN        5.747      7.500      0.0000     0.0000     1         
C_30201          RECT_OPEN        3.011      6.500      0.0000     0.0000     1         
C_30202          RECT_OPEN        3.968      6.500      0.0000     0.0000     1         
C_30203          RECT_OPEN        2.355      6.500      0.0000     0.0000     1         
C_30204          RECT_OPEN        2.445      6.500      0.0000     0.0000     1         
C_30205          RECT_OPEN        2.180      6.500      0.0000     0.0000     1         
C_30206          RECT_OPEN        1.852      6.500      0.0000     0.0000     1         
C_30207          RECT_OPEN        1.948      6.500      0.0000     0.0000     1         
C_30208          RECT_CLOSED      2.659      6.500      0.0000     0.0000     1         
C_30209          RECT_OPEN        3.098      6.500      0.0000     0.0000     1         
C_30210          RECT_OPEN        2.502      6.500      0.0000     0.0000     1         
C_30211          RECT_OPEN        2.501      6.500      0.0000     0.0000     1         
C_30212          RECT_OPEN        2.533      6.500      0.0000     0.0000     1         
C_30213          RECT_OPEN        2.764      6.500      0.0000     0.0000     1         
C_30214          RECT_OPEN        2.869      6.500      0.0000     0.0000     1         
C_30215          RECT_OPEN        2.728      6.500      0.0000     0.0000     1         
C_30216          RECT_OPEN        3.585      6.500      0.0000     0.0000     1         
C_30217          RECT_OPEN        2.535      6.500      0.0000     0.0000     1         
C_30219          RECT_OPEN        1.534      2.008      0.0000     0.0000     1         
C_30220          RECT_OPEN        1.861      6.500      0.0000     0.0000     1         
C_30221          RECT_OPEN        1.777      6.500      0.0000     0.0000     1         
C_30222          RECT_OPEN        2.965      6.500      0.0000     0.0000     1         
C_30223          RECT_CLOSED      3.131      6.500      0.0000     0.0000     1         
C_30224          RECT_OPEN        3.294      6.500      0.0000     0.0000     1         
C_30225          RECT_OPEN        3.214      6.500      0.0000     0.0000     1         
C_30226          RECT_OPEN        2.442      6.500      0.0000     0.0000     1         
C_30227          RECT_OPEN        3.373      6.500      0.0000     0.0000     1         
C_30228          RECT_OPEN        3.425      6.500      0.0000     0.0000     1         
C_30229          RECT_OPEN        3.396      6.500      0.0000     0.0000     1         
C_30230          RECT_OPEN        2.222      6.500      0.0000     0.0000     1         
C_30231          RECT_OPEN        2.270      6.500      0.0000     0.0000     1         
C_30232          RECT_OPEN        2.382      6.500      0.0000     0.0000     1         
C_30233          RECT_OPEN        2.137      6.500      0.0000     0.0000     1         
C_30234          RECT_OPEN        2.928      6.500      0.0000     0.0000     1         
C_30235          RECT_OPEN        2.048      6.500      0.0000     0.0000     1         
C_30236          RECT_OPEN        3.083      6.500      0.0000     0.0000     1         
C_30237          RECT_OPEN        3.623      6.500      0.0000     0.0000     1         
C_30238          RECT_CLOSED      4.865      6.500      0.0000     0.0000     1         
C_30239          RECT_OPEN        2.836      6.500      0.0000     0.0000     1         
C_30240          RECT_OPEN        2.463      2.000      0.0000     0.0000     1         
C_30241          RECT_OPEN        2.532      2.003      0.0000     0.0000     1         
C_30242          RECT_CLOSED      2.527      6.500      0.0000     0.0000     1         
C_30243          RECT_OPEN        2.385      5.000      0.0000     0.0000     1         
C_30244          RECT_CLOSED      2.582      5.000      0.0000     0.0000     1         
C_30245          RECT_OPEN        3.650      3.000      0.0000     0.0000     1         
C_30246          RECT_OPEN        3.277      3.148      0.0000     0.0000     1         
C_30247          RECT_OPEN        2.355      2.003      0.0000     0.0000     1         
C_30248          RECT_OPEN        2.216      2.002      0.0000     0.0000     1         
C_30249          RECT_CLOSED      2.268      2.000      0.0000     0.0000     1         
C_30250          RECT_OPEN        2.430      4.000      0.0000     0.0000     1         
C_30251          RECT_CLOSED      2.444      4.000      0.0000     0.0000     1         
C_30252          RECT_OPEN        2.200      2.002      0.0000     0.0000     1         
C_30253          RECT_OPEN        2.392      2.000      0.0000     0.0000     1         
C_30254          RECT_OPEN        2.350      1.990      0.0000     0.0000     1         
C_30255          RECT_OPEN        2.362      1.998      0.0000     0.0000     1         
C_30256          RECT_CLOSED      2.058      1.998      0.0000     0.0000     1         
C_30257          RECT_CLOSED      2.340      4.000      0.0000     0.0000     1         
C_30258          RECT_OPEN        2.372      4.000      0.0000     0.0000     1         
C_30259          RECT_OPEN        2.103      2.001      0.0000     0.0000     1         
C_30260          RECT_OPEN        2.183      2.000      0.0000     0.0000     1         
C_30261          RECT_OPEN        2.122      2.114      0.0000     0.0000     1         
C_30262          RECT_OPEN        1.653      1.995      0.0000     0.0000     1         
C_30263          RECT_CLOSED      2.500      2.700      0.0000     0.0000     1         
C_30264          RECT_OPEN        2.450      2.700      0.0000     0.0000     1         
C_30265          RECT_OPEN        2.290      2.070      0.0000     0.0000     1         
C_30277          RECT_OPEN        1.883      3.000      0.0000     0.0000     1         
C_30278          RECT_OPEN        1.572      3.131      0.0000     0.0000     1         
C_30279          RECT_OPEN        2.515      3.198      0.0000     0.0000     1         
C_30280          RECT_OPEN        2.255      3.000      0.0000     0.0000     1         
C_30281          RECT_OPEN        2.216      3.071      0.0000     0.0000     1         
C_30282          RECT_OPEN        2.140      3.955      0.0000     0.0000     1         
C_30283          RECT_OPEN        3.292      2.775      0.0000     0.0000     1         
C_30284          RECT_OPEN        3.386      2.793      0.0000     0.0000     1         
C_30285          RECT_OPEN        2.253      3.227      0.0000     0.0000     1         
C_30286          RECT_OPEN        1.845      2.741      0.0000     0.0000     1         
C_30287          RECT_OPEN        3.375      3.219      0.0000     0.0000     1         
C_30288          RECT_OPEN        2.312      5.000      0.0000     0.0000     1         
C_30289          RECT_OPEN        3.028      3.000      0.0000     0.0000     1         
C_30290          RECT_OPEN        2.185      3.000      0.0000     0.0000     1         
C_30291          RECT_CLOSED      2.227      5.000      0.0000     0.0000     1         
C_30292          RECT_OPEN        1.706      3.024      0.0000     0.0000     1         
C_30293          RECT_OPEN        1.554      2.568      0.0000     0.0000     1         
C_30294          RECT_OPEN        1.678      2.957      0.0000     0.0000     1         
C_30295          RECT_OPEN        1.738      2.837      0.0000     0.0000     1         
C_30296          RECT_OPEN        1.799      2.393      0.0000     0.0000     1         
C_30297          RECT_OPEN        1.787      2.393      0.0000     0.0000     1         
C_30298          RECT_OPEN        1.779      2.484      0.0000     0.0000     1         
C_30299          RECT_OPEN        1.748      3.232      0.0000     0.0000     1         
C_30300          RECT_OPEN        1.647      2.639      0.0000     0.0000     1         
C_30301          RECT_OPEN        2.174      2.503      0.0000     0.0000     1         
C_30302          RECT_OPEN        1.580      3.000      0.0000     0.0000     1         
C_30303          RECT_OPEN        2.107      2.540      0.0000     0.0000     1         
C_30304          RECT_OPEN        2.066      3.247      0.0000     0.0000     1         
C_30305          RECT_OPEN        1.453      3.052      0.0000     0.0000     1         
C_30306          RECT_OPEN        1.770      3.024      0.0000     0.0000     1         
C_30307          RECT_OPEN        2.328      3.000      0.0000     0.0000     1         
C_30308          RECT_OPEN        3.176      4.000      0.0000     0.0000     1         
C_30309          RECT_OPEN        1.864      2.282      0.0000     0.0000     1         
C_30310          RECT_CLOSED      3.500      6.000      0.0000     0.0000     1         
C_30311          RECT_OPEN        1.716      2.092      0.0000     0.0000     1         
C_30312          RECT_OPEN        2.546      2.235      0.0000     0.0000     1         
C_30313          RECT_OPEN        2.919      3.508      0.0000     0.0000     1         
C_30314          RECT_OPEN        2.080      2.064      0.0000     0.0000     1         
C_30315          RECT_OPEN        1.965      2.079      0.0000     0.0000     1         
C_30316          RECT_OPEN        3.458      2.567      0.0000     0.0000     1         
C_30317          RECT_OPEN        1.751      2.168      0.0000     0.0000     1         
C_30318          RECT_OPEN        1.649      1.908      0.0000     0.0000     1         
C_30319          RECT_OPEN        2.162      2.243      0.0000     0.0000     1         
C_30320          RECT_OPEN        1.447      2.347      0.0000     0.0000     1         
C_30321          RECT_OPEN        1.519      2.700      0.0000     0.0000     1         
C_30322          RECT_OPEN        1.808      2.281      0.0000     0.0000     1         
C_30323          RECT_OPEN        2.156      2.796      0.0000     0.0000     1         
C_30324          RECT_OPEN        1.855      2.556      0.0000     0.0000     1         
C_30325          RECT_CLOSED      3.000      3.000      0.0000     0.0000     1         
C_30326          RECT_OPEN        4.273      5.000      0.0000     0.0000     1         
C_30327          RECT_CLOSED      2.000      2.000      0.0000     0.0000     1         
C_30328          RECT_CLOSED      2.000      2.000      0.0000     0.0000     1         
C_30329          RECT_CLOSED      2.000      2.000      0.0000     0.0000     1         
C_30334          RECT_OPEN        2.313      1.973      0.0000     0.0000     1         
C_30335          RECT_OPEN        2.231      1.955      0.0000     0.0000     1         
C_30336          RECT_OPEN        2.093      2.124      0.0000     0.0000     1         
C_30337          RECT_OPEN        3.068      2.177      0.0000     0.0000     1         
C_30338          RECT_OPEN        2.321      2.101      0.0000     0.0000     1         
C_30339          RECT_OPEN        2.008      2.670      0.0000     0.0000     1         
C_30340          RECT_OPEN        3.625      9.000      0.0000     0.0000     1         
C_30341          RECT_OPEN        2.282      9.000      0.0000     0.0000     1         
C_30342          RECT_OPEN        3.638      9.000      0.0000     0.0000     1         
C_30343          RECT_OPEN        2.612      10.134     0.0000     0.0000     1         
C_30344          RECT_OPEN        3.108      8.139      0.0000     0.0000     1         
C_30345          RECT_OPEN        3.658      9.000      0.0000     0.0000     1         
C_30346          RECT_OPEN        2.773      9.000      0.0000     0.0000     1         
C_30347          RECT_OPEN        3.846      9.000      0.0000     0.0000     1         
C_30348          RECT_OPEN        3.762      9.000      0.0000     0.0000     1         
C_30349          RECT_OPEN        2.483      9.000      0.0000     0.0000     1         
C_30350          RECT_OPEN        2.873      8.000      0.0000     0.0000     1         
C_30351          RECT_OPEN        2.962      8.000      0.0000     0.0000     1         
C_30352          RECT_OPEN        3.433      8.064      0.0000     0.0000     1         
C_30353          RECT_OPEN        4.634      8.000      0.0000     0.0000     1         
C_30354          RECT_OPEN        4.202      9.139      0.0000     0.0000     1         
C_30355          RECT_OPEN        4.784      9.272      0.0000     0.0000     1         
C_30356          RECT_OPEN        3.673      9.000      0.0000     0.0000     1         
C_30357          RECT_CLOSED      2.000      3.000      0.0000     0.0000     1         
C_30358          RECT_CLOSED      2.000      3.000      0.0000     0.0000     1         
C_30359          RECT_CLOSED      2.000      3.000      0.0000     0.0000     1         
C_30360          RECT_CLOSED      2.000      4.000      0.0000     0.0000     1         
C_30361          RECT_CLOSED      2.000      4.000      0.0000     0.0000     1         
C_30362          RECT_CLOSED      2.000      3.000      0.0000     0.0000     1         
C_30363          RECT_CLOSED      2.000      4.000      0.0000     0.0000     1         
C_30364          RECT_CLOSED      2.000      4.000      0.0000     0.0000     1         
C_30678          RECT_OPEN        3.387      27.500     0.0000     0.0000     1         
C_30679          RECT_OPEN        3.398      27.500     0.0000     0.0000     1         
C_30680          RECT_OPEN        3.411      27.500     0.0000     0.0000     1         
C_30691          RECT_OPEN        3.619      29.500     0.0000     0.0000     1         
C_30692          RECT_OPEN        3.645      29.500     0.0000     0.0000     1         
C_30693          RECT_OPEN        3.773      29.000     0.0000     0.0000     1         
C_30694          RECT_OPEN        4.971      29.000     0.0000     0.0000     1         
C_30695          RECT_OPEN        3.511      27.000     0.0000     0.0000     1         
C_30696          RECT_OPEN        3.516      27.000     0.0000     0.0000     1         
C_30697          RECT_OPEN        3.504      27.000     0.0000     0.0000     1         
C_30698          RECT_OPEN        4.236      29.000     0.0000     0.0000     1         
C_30699          RECT_OPEN        3.493      29.000     0.0000     0.0000     1         
C_30700          RECT_OPEN        3.478      29.000     0.0000     0.0000     1         
C_30701          RECT_OPEN        4.312      29.000     0.0000     0.0000     1         
C_30702          RECT_OPEN        3.456      29.000     0.0000     0.0000     1         
C_30703          RECT_OPEN        3.423      27.500     0.0000     0.0000     1         
C_30704          RECT_OPEN        3.434      27.500     0.0000     0.0000     1         
C_30705          RECT_OPEN        3.447      29.000     0.0000     0.0000     1         
C_30714          RECT_OPEN        3.664      45.500     0.0000     0.0000     1         
C_30720          RECT_OPEN        4.900      70.000     0.0000     0.0000     1         
C_30724          RECT_OPEN        4.715      70.000     0.0000     0.0000     1         
C_30735          RECT_OPEN        4.340      70.000     0.0000     0.0000     1         
C_30750          RECT_OPEN        4.068      70.000     0.0000     0.0000     1         
C_30755          RECT_OPEN        4.078      70.000     0.0000     0.0000     1         
C_30948          RECT_OPEN        3.353      15.112     0.0000     0.0000     1         
C_30950          RECT_OPEN        3.393      13.000     0.0000     0.0000     1         
C_30952          RECT_OPEN        3.419      5.000      0.0000     0.0000     1         
C_31053          RECT_OPEN        2.485      13.000     0.0000     0.0000     1         
C_31054          RECT_OPEN        2.522      13.000     0.0000     0.0000     1         
C_31055          RECT_OPEN        2.491      13.000     0.0000     0.0000     1         
C_31056          RECT_OPEN        2.427      13.000     0.0000     0.0000     1         
C_31066          RECT_CLOSED      2.500      2.000      0.0000     0.0000     1         
C_31067          RECT_OPEN        3.146      13.000     0.0000     0.0000     1         
C_31068          RECT_OPEN        3.194      13.000     0.0000     0.0000     1         
C_31069          RECT_OPEN        3.280      13.000     0.0000     0.0000     1         
C_31070          RECT_OPEN        2.869      13.000     0.0000     0.0000     1         
C_31071          RECT_OPEN        2.903      13.000     0.0000     0.0000     1         
C_31072          RECT_OPEN        3.447      13.000     0.0000     0.0000     1         
C_31073          RECT_OPEN        3.411      13.000     0.0000     0.0000     1         
C_31074          RECT_OPEN        3.106      13.000     0.0000     0.0000     1         
C_31075          RECT_OPEN        2.637      13.000     0.0000     0.0000     1         
C_31076          RECT_OPEN        2.726      13.000     0.0000     0.0000     1         
C_31077          RECT_OPEN        2.374      13.000     0.0000     0.0000     1         
C_31078          RECT_OPEN        2.352      13.000     0.0000     0.0000     1         
C_31082          RECT_OPEN        2.334      13.000     0.0000     0.0000     1         
C_31084          RECT_OPEN        2.429      13.000     0.0000     0.0000     1         
C_31085          RECT_OPEN        2.430      8.000      0.0000     0.0000     1         
C_31086          RECT_OPEN        2.699      8.000      0.0000     0.0000     1         
C_31087          RECT_OPEN        4.180      11.000     0.0000     0.0000     1         
C_31088          RECT_OPEN        4.562      9.207      0.0000     0.0000     1         
C_31089          RECT_OPEN        2.567      14.037     0.0000     0.0000     1         
C_31112          RECT_CLOSED      1.600      2.000      0.0000     0.0000     1         
C_31113          RECT_OPEN        1.561      1.500      0.0000     0.0000     1         
C_31114          RECT_OPEN        1.500      1.200      0.0000     0.0000     1         
C_31115          RECT_OPEN        1.500      1.200      0.0000     0.0000     1         
C_31116          RECT_OPEN        2.000      1.500      0.0000     0.0000     1         
C_31117          RECT_OPEN        1.475      1.500      0.0000     0.0000     1         
C_31118          RECT_CLOSED      2.000      2.000      0.0000     0.0000     1         
C_31119          RECT_CLOSED      2.000      2.000      0.0000     0.0000     1         
C_31120          RECT_CLOSED      2.000      2.000      0.0000     0.0000     1         
C_31127          RECT_CLOSED      2.000      2.000      0.0000     0.0000     1         
C_31159          RECT_CLOSED      2.500      2.000      0.0000     0.0000     1         
C_31194          RECT_CLOSED      2.000      2.000      0.0000     0.0000     1         
C_31471          RECT_OPEN        4.094      70.000     0.0000     0.0000     1         
C_31475          RECT_OPEN        4.117      70.000     0.0000     0.0000     1         
C_31476          RECT_OPEN        4.134      70.000     0.0000     0.0000     1         
C_31501          RECT_OPEN        4.155      70.000     0.0000     0.0000     1         
C_31507          RECT_OPEN        4.208      60.000     0.0000     0.0000     1         
C_31508          RECT_OPEN        4.283      60.000     0.0000     0.0000     1         
C_31509          RECT_OPEN        4.089      40.000     0.0000     0.0000     1         
C_31510          RECT_OPEN        3.500      20.000     0.0000     0.0000     1         
C_31511          RECT_OPEN        3.174      5.000      0.0000     0.0000     1         
C_31512          RECT_OPEN        3.664      5.000      0.0000     0.0000     1         
C_31513          RECT_CLOSED      3.776      5.000      0.0000     0.0000     1         
C_31515          RECT_OPEN        3.892      5.000      0.0000     0.0000     1         
C_31517          RECT_OPEN        3.998      10.000     0.0000     0.0000     1         
C_31522          RECT_OPEN        3.347      25.000     0.0000     0.0000     1         
C_31523          RECT_OPEN        2.332      8.000      0.0000     0.0000     1         
C_31524          RECT_OPEN        1.995      8.000      0.0000     0.0000     1         
C_31525          RECT_OPEN        2.326      8.000      0.0000     0.0000     1         
C_31526          RECT_OPEN        4.079      13.411     0.0000     0.0000     1         
C_31527          RECT_OPEN        4.293      12.500     0.0000     0.0000     1         
C_31528          RECT_CLOSED      4.273      8.200      0.0000     0.0000     1         
C_31529          RECT_OPEN        3.970      8.000      0.0000     0.0000     1         
C_31530          RECT_OPEN        3.345      16.844     0.0000     0.0000     1         
C_31531          RECT_OPEN        3.746      19.000     0.0000     0.0000     1         
C_31532          RECT_OPEN        3.602      20.323     0.0000     0.0000     1         
C_31533          RECT_OPEN        3.853      17.000     0.0000     0.0000     1         
C_31534          RECT_OPEN        2.722      13.613     0.0000     0.0000     1         
C_31535          RECT_OPEN        3.110      10.439     0.0000     0.0000     1         
C_31536          RECT_OPEN        4.952      9.000      0.0000     0.0000     1         
C_31537          RECT_OPEN        5.047      9.491      0.0000     0.0000     1         
C_31538          RECT_CLOSED      5.000      9.491      0.0000     0.0000     1         
C_31947          RECT_OPEN        4.637      60.000     0.0000     0.0000     1         
C_31948          RECT_OPEN        4.703      60.000     0.0000     0.0000     1         
C_31949          RECT_OPEN        4.777      60.000     0.0000     0.0000     1         
C_31950          RECT_OPEN        4.869      60.000     0.0000     0.0000     1         
C_31951          RECT_OPEN        4.368      60.000     0.0000     0.0000     1         
C_31952          RECT_OPEN        4.448      60.000     0.0000     0.0000     1         
C_31953          RECT_OPEN        4.527      60.000     0.0000     0.0000     1         

[SUBCATCHMENTS]
;;Name           Rain Gage        Outlet           Area       %Imperv    Width      %Slope     CurbLen    SnowPack
SC_22963         RG_SANTACRUZ     2175085101       1.0000     61.80      100.00     6.41       0
SC_22964         RG_SANTACRUZ     2175086302       1.0000     5.00       100.00     7.84       0
SC_23248         RG_SANTACRUZ     2175076905       1.0000     94.20      100.00     20.82      0
SC_23249         RG_SANTACRUZ     2175086001       1.0000     68.60      100.00     12.14      0
SC_23250         RG_SANTACRUZ     2175086101       1.0000     82.60      100.00     12.48      0
SC_23251         RG_SANTACRUZ     2175086302       1.0000     95.00      100.00     4.13       0
SC_23252         RG_SANTACRUZ     2175086302       1.0000     52.90      100.00     6.29       0
SC_23253         RG_SANTACRUZ     2175086302       1.0000     5.00       100.00     3.48       0
SC_23536         RG_SANTACRUZ     2175076802       1.0000     95.00      100.00     15.90      0
SC_23537         RG_SANTACRUZ     2175086001       1.0000     80.20      100.00     9.69       0
SC_23538         RG_SANTACRUZ     2175087202       1.0000     67.80      100.00     17.64      0
SC_23539         RG_SANTACRUZ     2175087202       1.0000     73.60      100.00     12.78      0
SC_23540         RG_SANTACRUZ     2175087201       1.0000     91.70      100.00     3.73       0
SC_23541         RG_SANTACRUZ     2175088401       1.0000     56.20      100.00     6.02       0
SC_23542         RG_SANTACRUZ     2175088602       1.0000     5.00       100.00     8.60       0
SC_23543         RG_SANTACRUZ     2175088602       1.0000     8.30       100.00     3.96       0
SC_23823         RG_SANTACRUZ     2175077803       1.0000     95.00      100.00     6.38       0
SC_23824         RG_SANTACRUZ     2175077803       1.0000     65.30      100.00     6.96       0
SC_23825         RG_SANTACRUZ     2175087202       1.0000     11.60      100.00     7.71       0
SC_23826         RG_SANTACRUZ     2175087202       1.0000     5.50       100.00     6.58       0
SC_23827         RG_SANTACRUZ     2175088304       1.0000     58.70      100.00     13.41      0
SC_23828         RG_SANTACRUZ     2175088402       1.0000     92.60      100.00     4.66       0
SC_23829         RG_SANTACRUZ     2175089501       1.0000     81.00      100.00     5.40       0
SC_23830         RG_SANTACRUZ     2175088602       1.0000     28.90      100.00     6.04       0
SC_23831         RG_SANTACRUZ     2175089701       1.0000     5.00       100.00     6.71       0
SC_23832         RG_SANTACRUZ     2175087802       1.0000     5.00       100.00     5.00       0
SC_24105         RG_SANTACRUZ     2175078701       1.0000     10.70      100.00     4.52       0
SC_24106         RG_SANTACRUZ     2176071901       1.0000     66.10      100.00     11.46      0
SC_24107         RG_SANTACRUZ     2176081001       1.0000     72.70      100.00     7.16       0
SC_24108         RG_SANTACRUZ     2176081001       1.0000     51.20      100.00     10.56      0
SC_24109         RG_SANTACRUZ     2175088304       1.0000     42.70      100.00     36.93      0
SC_24110         RG_SANTACRUZ     2175088304       1.0000     95.00      100.00     31.60      0
SC_24111         RG_SANTACRUZ     2175089401       1.0000     24.80      100.00     9.80       0
SC_24112         RG_SANTACRUZ     2175089503       1.0000     68.60      100.00     4.54       0
SC_24113         RG_SANTACRUZ     2175089601       1.0000     79.30      100.00     4.46       0
SC_24114         RG_SANTACRUZ     2175089701       1.0000     90.10      100.00     3.33       0
SC_24115         RG_SANTACRUZ     2175089701       1.0000     56.20      100.00     5.52       0
SC_24116         RG_SANTACRUZ     2176080901       1.0000     22.30      100.00     5.70       0
SC_24117         RG_SANTACRUZ     2176080901       1.0000     5.00       100.00     4.77       0
SC_24118         RG_SANTACRUZ     2176080901       1.0000     5.00       100.00     3.37       0
SC_24387         RG_SANTACRUZ     2176070801       1.0000     41.30      100.00     9.39       0
SC_24388         RG_SANTACRUZ     2176071901       1.0000     79.30      100.00     8.51       0
SC_24389         RG_SANTACRUZ     2176081001       1.0000     95.00      100.00     8.86       0
SC_24390         RG_SANTACRUZ     2176081001       1.0000     52.90      100.00     9.37       0
SC_24391         RG_SANTACRUZ     2175088304       1.0000     95.00      100.00     21.17      0
SC_24392         RG_SANTACRUZ     2175088304       1.0000     95.00      100.00     30.32      0
SC_24393         RG_SANTACRUZ     2175089503       1.0000     63.60      100.00     19.96      0
SC_24394         RG_SANTACRUZ     2175089503       1.0000     7.40       100.00     5.30       0
SC_24395         RG_SANTACRUZ     2176080601       1.0000     43.80      100.00     3.46       0
SC_24396         RG_SANTACRUZ     2176080701       1.0000     95.00      100.00     3.85       0
SC_24397         RG_SANTACRUZ     2176080702       1.0000     95.00      100.00     4.29       0
SC_24398         RG_SANTACRUZ     2176080902       1.0000     73.60      100.00     5.71       0
SC_24399         RG_SANTACRUZ     2176091001       1.0000     67.80      100.00     6.73       0
SC_24400         RG_SANTACRUZ     2176091001       1.0000     38.80      100.00     5.77       0
SC_24401         RG_SANTACRUZ     2176092201       1.0000     5.00       100.00     2.66       0
SC_24402         RG_SANTACRUZ     2176092201       1.0000     5.00       100.00     4.38       0
SC_24668         RG_SANTACRUZ     2176070801       1.0000     52.10      100.00     9.09       0
SC_24669         RG_SANTACRUZ     2176071901       1.0000     55.40      100.00     9.73       0
SC_24670         RG_SANTACRUZ     2176081001       1.0000     88.40      100.00     7.67       0
SC_24671         RG_SANTACRUZ     2176081001       1.0000     52.90      100.00     3.54       0
SC_24672         RG_SANTACRUZ     2176081001       1.0000     95.00      100.00     9.17       0
SC_24673         RG_SANTACRUZ     2175089401       1.0000     77.70      100.00     16.82      0
SC_24674         RG_SANTACRUZ     2175089503       1.0000     91.70      100.00     20.76      0
SC_24675         RG_SANTACRUZ     2176080601       1.0000     5.80       100.00     8.54       0
SC_24676         RG_SANTACRUZ     2176080602       1.0000     5.00       100.00     6.74       0
SC_24677         RG_SANTACRUZ     2176081701       1.0000     20.70      100.00     4.06       0
SC_24678         RG_SANTACRUZ     2176081803       1.0000     75.20      100.00     8.03       0
SC_24679         RG_SANTACRUZ     2176081802       1.0000     87.60      100.00     7.08       0
SC_24680         RG_SANTACRUZ     2176091001       1.0000     95.00      100.00     5.64       0
SC_24681         RG_SANTACRUZ     2176092101       1.0000     95.00      100.00     3.86       0
SC_24682         RG_SANTACRUZ     2176092201       1.0000     48.80      100.00     8.66       0
SC_24683         RG_SANTACRUZ     2176092201       1.0000     5.00       100.00     4.34       0
SC_24684         RG_SANTACRUZ     2176092502       1.0000     5.00       100.00     3.94       0
SC_24685         RG_SANTACRUZ     2176092502       1.0000     5.00       100.00     4.96       0
SC_24692         RG_SANTACRUZ     2176101101       1.0000     14.90      100.00     12.84      0
SC_24693         RG_SANTACRUZ     2176102401       1.0000     57.00      100.00     13.18      0
SC_24694         RG_SANTACRUZ     2176101401       1.0000     89.30      100.00     10.69      0
SC_24695         RG_SANTACRUZ     2176101401       1.0000     75.20      100.00     4.84       0
SC_24945         RG_SANTACRUZ     2176072701       1.0000     60.30      100.00     7.78       0
SC_24946         RG_SANTACRUZ     2176072801       1.0000     71.90      100.00     19.09      0
SC_24947         RG_SANTACRUZ     2176072801       1.0000     57.00      100.00     11.92      0
SC_24948         RG_SANTACRUZ     2176081001       1.0000     62.80      100.00     8.04       0
SC_24949         RG_SANTACRUZ     2176081001       1.0000     66.90      100.00     8.80       0
SC_24950         RG_SANTACRUZ     2176081001       1.0000     81.80      100.00     4.17       0
SC_24951         RG_SANTACRUZ     2175089503       1.0000     81.80      100.00     15.86      0
SC_24952         RG_SANTACRUZ     2176080601       1.0000     43.80      100.00     18.16      0
SC_24953         RG_SANTACRUZ     2176080602       1.0000     40.50      100.00     8.67       0
SC_24954         RG_SANTACRUZ     2176081701       1.0000     36.40      100.00     7.58       0
SC_24955         RG_SANTACRUZ     2176081804       1.0000     5.00       100.00     4.80       0
SC_24956         RG_SANTACRUZ     2176082801       1.0000     26.40      100.00     5.13       0
SC_24957         RG_SANTACRUZ     2176082901       1.0000     72.70      100.00     5.27       0
SC_24958         RG_SANTACRUZ     2176093001       1.0000     95.00      100.00     4.08       0
SC_24959         RG_SANTACRUZ     2176092101       1.0000     86.00      100.00     3.60       0
SC_24960         RG_SANTACRUZ     2176092201       1.0000     55.40      100.00     9.08       0
SC_24961         RG_SANTACRUZ     2176093201       1.0000     5.00       100.00     7.13       0
SC_24962         RG_SANTACRUZ     2176093301       1.0000     20.70      100.00     11.17      0
SC_24963         RG_SANTACRUZ     2176092502       1.0000     5.80       100.00     11.54      0
SC_24964         RG_SANTACRUZ     2176092502       1.0000     19.80      100.00     12.35      0
SC_24965         RG_SANTACRUZ     2176093701       1.0000     14.00      100.00     13.33      0
SC_24966         RG_SANTACRUZ     2176093901       1.0000     9.10       100.00     17.21      0
SC_24967         RG_SANTACRUZ     2176093901       1.0000     8.30       100.00     18.11      0
SC_24968         RG_SANTACRUZ     2176102002       1.0000     46.30      100.00     5.43       0
SC_24969         RG_SANTACRUZ     2176102101       1.0000     73.60      100.00     5.30       0
SC_24970         RG_SANTACRUZ     2176102201       1.0000     94.20      100.00     11.09      0
SC_24971         RG_SANTACRUZ     2176102401       1.0000     95.00      100.00     7.87       0
SC_24972         RG_SANTACRUZ     2176102401       1.0000     84.30      100.00     21.63      0
SC_24973         RG_SANTACRUZ     2176102501       1.0000     95.00      100.00     12.35      0
SC_24974         RG_SANTACRUZ     2176102501       1.0000     48.20      100.00     5.93       0
SC_25224         RG_SANTACRUZ     2176073603       1.0000     58.70      100.00     14.66      0
SC_25225         RG_SANTACRUZ     2176073803       1.0000     72.70      100.00     21.50      0
SC_25226         RG_SANTACRUZ     2176073901       1.0000     83.50      100.00     7.92       0
SC_25227         RG_SANTACRUZ     2176084001       1.0000     76.00      100.00     9.62       0
SC_25228         RG_SANTACRUZ     2176084001       1.0000     25.60      100.00     8.60       0
SC_25229         RG_SANTACRUZ     2176084001       1.0000     41.80      100.00     5.46       0
SC_25230         RG_SANTACRUZ     2176086301       1.0000     83.50      100.00     6.34       0
SC_25231         RG_SANTACRUZ     2176086302       1.0000     78.50      100.00     8.61       0
SC_25232         RG_SANTACRUZ     2176080602       1.0000     41.30      100.00     11.41      0
SC_25233         RG_SANTACRUZ     2176081804       1.0000     5.00       100.00     8.21       0
SC_25234         RG_SANTACRUZ     2176082801       1.0000     5.00       100.00     4.98       0
SC_25235         RG_SANTACRUZ     2176082801       1.0000     27.30      100.00     4.16       0
SC_25236         RG_SANTACRUZ     2176083901       1.0000     75.20      100.00     5.67       0
SC_25237         RG_SANTACRUZ     2176093001       1.0000     86.80      100.00     7.75       0
SC_25238         RG_SANTACRUZ     2176093102       1.0000     94.20      100.00     6.49       0
SC_25239         RG_SANTACRUZ     2176094201       1.0000     95.00      100.00     8.79       0
SC_25240         RG_SANTACRUZ     2176093301       1.0000     87.60      100.00     8.16       0
SC_25241         RG_SANTACRUZ     2176093301       1.0000     74.40      100.00     8.63       0
SC_25242         RG_SANTACRUZ     2176093501       1.0000     71.10      100.00     6.81       0
SC_25243         RG_SANTACRUZ     2176093701       1.0000     70.20      100.00     5.96       0
SC_25244         RG_SANTACRUZ     2176093701       1.0000     87.60      100.00     11.77      0
SC_25245         RG_SANTACRUZ     2176093903       1.0000     67.80      100.00     14.45      0
SC_25246         RG_SANTACRUZ     2176093902       1.0000     84.30      100.00     12.03      0
SC_25247         RG_SANTACRUZ     2176103001       1.0000     94.20      100.00     7.29       0
SC_25248         RG_SANTACRUZ     2176103102       1.0000     95.00      100.00     2.84       0
SC_25249         RG_SANTACRUZ     2176102102       1.0000     95.00      100.00     3.15       0
SC_25250         RG_SANTACRUZ     2176104301       1.0000     95.00      100.00     5.35       0
SC_25251         RG_SANTACRUZ     2176102401       1.0000     95.00      100.00     18.12      0
SC_25252         RG_SANTACRUZ     2176102501       1.0000     95.00      100.00     6.42       0
SC_25253         RG_SANTACRUZ     2176104601       1.0000     87.30      100.00     4.50       0
SC_25501         RG_SANTACRUZ     2176074501       1.0000     38.80      100.00     19.75      0
SC_25502         RG_SANTACRUZ     2176074802       1.0000     41.30      100.00     19.68      0
SC_25503         RG_SANTACRUZ     2176074803       1.0000     73.60      100.00     14.25      0
SC_25504         RG_SANTACRUZ     2176074804       1.0000     75.20      100.00     17.22      0
SC_25505         RG_SANTACRUZ     2176084001       1.0000     72.70      100.00     7.88       0
SC_25506         RG_SANTACRUZ     2176084001       1.0000     31.40      100.00     8.95       0
SC_25507         RG_SANTACRUZ     2176086202       1.0000     62.70      100.00     12.10      0
SC_25508         RG_SANTACRUZ     2176086301       1.0000     57.00      100.00     11.37      0
SC_25509         RG_SANTACRUZ     2176086302       1.0000     76.00      100.00     35.25      0
SC_25510         RG_SANTACRUZ     2176086303       1.0000     75.20      100.00     33.82      0
SC_25511         RG_SANTACRUZ     2176082801       1.0000     57.00      100.00     30.40      0
SC_25512         RG_SANTACRUZ     2176082801       1.0000     21.50      100.00     33.28      0
SC_25513         RG_SANTACRUZ     2176083901       1.0000     25.60      100.00     28.11      0
SC_25514         RG_SANTACRUZ     2176093002       1.0000     73.60      100.00     23.14      0
SC_25515         RG_SANTACRUZ     2176094001       1.0000     24.80      100.00     15.30      0
SC_25516         RG_SANTACRUZ     2176094001       1.0000     95.00      100.00     8.79       0
SC_25517         RG_SANTACRUZ     2176094202       1.0000     94.20      100.00     5.09       0
SC_25518         RG_SANTACRUZ     2176095301       1.0000     95.00      100.00     5.90       0
SC_25519         RG_SANTACRUZ     2176094401       1.0000     93.40      100.00     11.10      0
SC_25520         RG_SANTACRUZ     2176094501       1.0000     87.60      100.00     6.39       0
SC_25521         RG_SANTACRUZ     2176094502       1.0000     78.50      100.00     9.99       0
SC_25522         RG_SANTACRUZ     2176095701       1.0000     80.20      100.00     4.96       0
SC_25523         RG_SANTACRUZ     2176095801       1.0000     63.60      100.00     7.19       0
SC_25524         RG_SANTACRUZ     2176094902       1.0000     81.80      100.00     9.46       0
SC_25525         RG_SANTACRUZ     2176104003       1.0000     90.10      100.00     22.63      0
SC_25526         RG_SANTACRUZ     2176104102       1.0000     95.00      100.00     19.77      0
SC_25527         RG_SANTACRUZ     2176104201       1.0000     95.00      100.00     6.85       0
SC_25528         RG_SANTACRUZ     2176104302       1.0000     95.00      100.00     7.25       0
SC_25529         RG_SANTACRUZ     2176105301       1.0000     95.00      100.00     8.13       0
SC_25530         RG_SANTACRUZ     2176104601       1.0000     66.10      100.00     8.03       0
SC_25531         RG_SANTACRUZ     2176104601       1.0000     94.50      100.00     4.85       0
SC_25532         RG_SANTACRUZ     2176104601       1.0000     43.80      100.00     4.99       0
SC_25778         RG_SANTACRUZ     2176075501       1.0000     76.90      100.00     41.74      0
SC_25779         RG_SANTACRUZ     2176076701       1.0000     64.50      100.00     39.74      0
SC_25780         RG_SANTACRUZ     2176075802       1.0000     92.60      100.00     10.86      0
SC_25781         RG_SANTACRUZ     2176075902       1.0000     61.20      100.00     15.72      0
SC_25782         RG_SANTACRUZ     2176075902       1.0000     47.90      100.00     18.29      0
SC_25783         RG_SANTACRUZ     2176086101       1.0000     21.50      100.00     8.13       0
SC_25784         RG_SANTACRUZ     2176086203       1.0000     11.80      100.00     7.51       0
SC_25785         RG_SANTACRUZ     2176086301       1.0000     84.30      100.00     9.93       0
SC_25786         RG_SANTACRUZ     2176086303       1.0000     43.80      100.00     17.51      0
SC_25787         RG_SANTACRUZ     2176086401       1.0000     79.30      100.00     22.69      0
SC_25788         RG_SANTACRUZ     2176087402       1.0000     95.00      100.00     19.49      0
SC_25789         RG_SANTACRUZ     2176087403       1.0000     95.00      100.00     19.35      0
SC_25790         RG_SANTACRUZ     2176093002       1.0000     90.90      100.00     18.68      0
SC_25791         RG_SANTACRUZ     2176094001       1.0000     76.00      100.00     27.63      0
SC_25792         RG_SANTACRUZ     2176094001       1.0000     77.70      100.00     17.11      0
SC_25793         RG_SANTACRUZ     2176094001       1.0000     67.80      100.00     8.33       0
SC_25794         RG_SANTACRUZ     2176095301       1.0000     95.00      100.00     7.47       0
SC_25795         RG_SANTACRUZ     2176095301       1.0000     93.40      100.00     3.90       0
SC_25796         RG_SANTACRUZ     2176095402       1.0000     93.40      100.00     5.85       0
SC_25797         RG_SANTACRUZ     2176094501       1.0000     90.10      100.00     7.18       0
SC_25798         RG_SANTACRUZ     2176094502       1.0000     85.10      100.00     11.42      0
SC_25799         RG_SANTACRUZ     2176095701       1.0000     65.30      100.00     17.08      0
SC_25800         RG_SANTACRUZ     2176095801       1.0000     70.20      100.00     13.14      0
SC_25801         RG_SANTACRUZ     2176095801       1.0000     68.60      100.00     13.19      0
SC_25802         RG_SANTACRUZ     2176095901       1.0000     86.00      100.00     17.86      0
SC_25803         RG_SANTACRUZ     2176105101       1.0000     84.30      100.00     18.31      0
SC_25804         RG_SANTACRUZ     2176105103       1.0000     87.60      100.00     17.36      0
SC_25805         RG_SANTACRUZ     2176105301       1.0000     93.40      100.00     22.81      0
SC_25806         RG_SANTACRUZ     2176105401       1.0000     95.00      100.00     8.10       0
SC_25807         RG_SANTACRUZ     2176106501       1.0000     66.10      100.00     7.23       0
SC_25808         RG_SANTACRUZ     2176105601       1.0000     95.00      100.00     4.24       0
SC_25809         RG_SANTACRUZ     2176105601       1.0000     95.00      100.00     2.98       0
SC_25810         RG_SANTACRUZ     2176104904       1.0000     69.40      100.00     6.57       0
SC_26054         RG_SANTACRUZ     2176076502       1.0000     56.20      100.00     10.84      0
SC_26055         RG_SANTACRUZ     2176076603       1.0000     70.20      100.00     31.50      0
SC_26057         RG_SANTACRUZ     2176076801       1.0000     60.30      100.00     7.06       0
SC_26058         RG_SANTACRUZ     2176076903       1.0000     49.60      100.00     18.88      0
SC_26059         RG_SANTACRUZ     2176086001       1.0000     36.40      100.00     22.94      0
SC_26060         RG_SANTACRUZ     2176086102       1.0000     9.90       100.00     4.15       0
SC_26061         RG_SANTACRUZ     2176086203       1.0000     5.00       100.00     5.74       0
SC_26062         RG_SANTACRUZ     2176086302       1.0000     5.00       100.00     6.89       0
SC_26063         RG_SANTACRUZ     2176086401       1.0000     26.40      100.00     9.30       0
SC_26064         RG_SANTACRUZ     2176087402       1.0000     79.30      100.00     14.24      0
SC_26065         RG_SANTACRUZ     2176087403       1.0000     90.10      100.00     8.55       0
SC_26066         RG_SANTACRUZ     2176088802       1.0000     90.90      100.00     13.28      0
SC_26067         RG_SANTACRUZ     2176088902       1.0000     64.50      100.00     7.11       0
SC_26068         RG_SANTACRUZ     2176088901       1.0000     87.60      100.00     5.91       0
SC_26069         RG_SANTACRUZ     2176098001       1.0000     95.00      100.00     6.47       0
SC_26070         RG_SANTACRUZ     2176095301       1.0000     90.90      100.00     7.04       0
SC_26071         RG_SANTACRUZ     2176095301       1.0000     95.00      100.00     4.67       0
SC_26072         RG_SANTACRUZ     2176095402       1.0000     82.60      100.00     8.99       0
SC_26073         RG_SANTACRUZ     2176095402       1.0000     71.90      100.00     6.62       0
SC_26074         RG_SANTACRUZ     2176095402       1.0000     90.10      100.00     6.26       0
SC_26075         RG_SANTACRUZ     2176094502       1.0000     60.30      100.00     5.52       0
SC_26076         RG_SANTACRUZ     2176095701       1.0000     95.00      100.00     18.05      0
SC_26077         RG_SANTACRUZ     2176095801       1.0000     95.00      100.00     17.91      0
SC_26078         RG_SANTACRUZ     2176096901       1.0000     89.30      100.00     7.37       0
SC_26079         RG_SANTACRUZ     2176096901       1.0000     74.40      100.00     8.29       0
SC_26080         RG_SANTACRUZ     2176106102       1.0000     75.20      100.00     16.00      0
SC_26081         RG_SANTACRUZ     2176106201       1.0000     90.90      100.00     14.36      0
SC_26082         RG_SANTACRUZ     2176106201       1.0000     95.00      100.00     8.63       0
SC_26083         RG_SANTACRUZ     2176106501       1.0000     75.20      100.00     4.37       0
SC_26084         RG_SANTACRUZ     2176106501       1.0000     95.00      100.00     6.06       0
SC_26085         RG_SANTACRUZ     2176106602       1.0000     95.00      100.00     5.68       0
SC_26086         RG_SANTACRUZ     2176107602       1.0000     95.00      100.00     4.68       0
SC_26087         RG_SANTACRUZ     2176107801       1.0000     66.90      100.00     5.70       0
SC_26336         RG_SANTACRUZ     2176087001       1.0000     58.70      100.00     12.80      0
SC_26337         RG_SANTACRUZ     2176087002       1.0000     26.40      100.00     4.50       0
SC_26338         RG_SANTACRUZ     2176086203       1.0000     5.00       100.00     8.35       0
SC_26339         RG_SANTACRUZ     2176086401       1.0000     8.30       100.00     8.98       0
SC_26340         RG_SANTACRUZ     2176087401       1.0000     12.40      100.00     2.86       0
SC_26341         RG_SANTACRUZ     2176087501       1.0000     16.50      100.00     9.86       0
SC_26342         RG_SANTACRUZ     2176088502       1.0000     76.90      100.00     8.95       0
SC_26343         RG_SANTACRUZ     2176088701       1.0000     87.60      100.00     8.51       0
SC_26344         RG_SANTACRUZ     2176088801       1.0000     89.30      100.00     4.58       0
SC_26345         RG_SANTACRUZ     2176088901       1.0000     81.00      100.00     14.83      0
SC_26346         RG_SANTACRUZ     2176098001       1.0000     74.40      100.00     12.66      0
SC_26347         RG_SANTACRUZ     2176098001       1.0000     95.00      100.00     3.08       0
SC_26348         RG_SANTACRUZ     2176095402       1.0000     86.80      100.00     3.95       0
SC_26349         RG_SANTACRUZ     2176095402       1.0000     95.00      100.00     4.82       0
SC_26350         RG_SANTACRUZ     2176095402       1.0000     94.20      100.00     5.44       0
SC_26351         RG_SANTACRUZ     2176095402       1.0000     91.70      100.00     7.08       0
SC_26352         RG_SANTACRUZ     2176095701       1.0000     73.60      100.00     5.95       0
SC_26353         RG_SANTACRUZ     2176095701       1.0000     95.00      100.00     6.79       0
SC_26354         RG_SANTACRUZ     2176096901       1.0000     87.60      100.00     7.40       0
SC_26355         RG_SANTACRUZ     2176096901       1.0000     95.00      100.00     4.98       0
SC_26356         RG_SANTACRUZ     2176096901       1.0000     93.40      100.00     4.37       0
SC_26357         RG_SANTACRUZ     2176107101       1.0000     87.60      100.00     9.01       0
SC_26358         RG_SANTACRUZ     2176107201       1.0000     95.00      100.00     13.84      0
SC_26359         RG_SANTACRUZ     2176107202       1.0000     95.00      100.00     3.76       0
SC_26360         RG_SANTACRUZ     2176108301       1.0000     95.00      100.00     4.51       0
SC_26361         RG_SANTACRUZ     2176106601       1.0000     95.00      100.00     8.41       0
SC_26362         RG_SANTACRUZ     2176107601       1.0000     95.00      100.00     9.02       0
SC_26363         RG_SANTACRUZ     2176107702       1.0000     83.50      100.00     4.08       0
SC_26364         RG_SANTACRUZ     2176107801       1.0000     22.30      100.00     3.41       0
SC_26368         RG_SANTACRUZ     2176116301       1.0000     5.00       100.00     5.43       0
SC_26369         RG_SANTACRUZ     2176116301       1.0000     52.90      100.00     9.04       0
SC_26370         RG_SANTACRUZ     2176116301       1.0000     35.50      100.00     7.04       0
SC_26613         RG_SANTACRUZ     2176088001       1.0000     61.20      100.00     17.29      0
SC_26614         RG_SANTACRUZ     2176088002       1.0000     20.70      100.00     6.22       0
SC_26615         RG_SANTACRUZ     2176088002       1.0000     5.00       100.00     7.15       0
SC_26616         RG_SANTACRUZ     2176087401       1.0000     5.00       100.00     7.51       0
SC_26617         RG_SANTACRUZ     2176087501       1.0000     33.10      100.00     4.08       0
SC_26618         RG_SANTACRUZ     2176088503       1.0000     16.50      100.00     6.09       0
SC_26619         RG_SANTACRUZ     2176088601       1.0000     76.00      100.00     7.61       0
SC_26620         RG_SANTACRUZ     2176088701       1.0000     94.20      100.00     7.21       0
SC_26621         RG_SANTACRUZ     2176088802       1.0000     92.60      100.00     9.55       0
SC_26622         RG_SANTACRUZ     2176088902       1.0000     88.40      100.00     13.62      0
SC_26623         RG_SANTACRUZ     2176098001       1.0000     84.30      100.00     7.45       0
SC_26624         RG_SANTACRUZ     2176098001       1.0000     93.40      100.00     3.04       0
SC_26625         RG_SANTACRUZ     2176098001       1.0000     95.00      100.00     2.70       0
SC_26626         RG_SANTACRUZ     2176095402       1.0000     93.40      100.00     2.38       0
SC_26627         RG_SANTACRUZ     2176095402       1.0000     95.00      100.00     2.87       0
SC_26628         RG_SANTACRUZ     2176095402       1.0000     95.00      100.00     2.34       0
SC_26629         RG_SANTACRUZ     2177090803       1.0000     86.80      100.00     2.49       0
SC_26630         RG_SANTACRUZ     2177090801       1.0000     84.30      100.00     7.78       0
SC_26631         RG_SANTACRUZ     2176099901       1.0000     91.70      100.00     9.09       0
SC_26632         RG_SANTACRUZ     2176099901       1.0000     90.10      100.00     9.91       0
SC_26633         RG_SANTACRUZ     2176107101       1.0000     95.00      100.00     4.91       0
SC_26634         RG_SANTACRUZ     2176107101       1.0000     95.00      100.00     3.83       0
SC_26635         RG_SANTACRUZ     2176107202       1.0000     95.00      100.00     9.88       0
SC_26636         RG_SANTACRUZ     2176108301       1.0000     95.00      100.00     10.04      0
SC_26637         RG_SANTACRUZ     2176108401       1.0000     95.00      100.00     10.23      0
SC_26638         RG_SANTACRUZ     2176108401       1.0000     95.00      100.00     7.79       0
SC_26639         RG_SANTACRUZ     2176107701       1.0000     95.00      100.00     7.74       0
SC_26640         RG_SANTACRUZ     2176108703       1.0000     47.10      100.00     8.99       0
SC_26641         RG_SANTACRUZ     2176108701       1.0000     73.60      100.00     5.02       0
SC_26642         RG_SANTACRUZ     2176118002       1.0000     29.80      100.00     4.93       0
SC_26643         RG_SANTACRUZ     2176118003       1.0000     12.40      100.00     7.50       0
SC_26644         RG_SANTACRUZ     2176118004       1.0000     7.40       100.00     7.28       0
SC_26645         RG_SANTACRUZ     2176119101       1.0000     34.70      100.00     5.00       0
SC_26646         RG_SANTACRUZ     2176119102       1.0000     80.20      100.00     4.01       0
SC_26647         RG_SANTACRUZ     2176118502       1.0000     91.70      100.00     6.04       0
SC_26648         RG_SANTACRUZ     2176118502       1.0000     82.60      100.00     7.49       0
SC_26649         RG_SANTACRUZ     2176118503       1.0000     43.00      100.00     9.54       0
SC_26650         RG_SANTACRUZ     2176118503       1.0000     36.40      100.00     7.86       0
SC_26651         RG_SANTACRUZ     2176119901       1.0000     37.20      100.00     5.15       0
SC_26652         RG_SANTACRUZ     2176119901       1.0000     46.30      100.00     2.05       0
SC_26653         RG_SANTACRUZ     2176119901       1.0000     52.10      100.00     1.22       0
SC_26654         RG_SANTACRUZ     2176119901       1.0000     62.00      100.00     0.89       0
SC_26655         RG_SANTACRUZ     2176127201       1.0000     86.00      100.00     2.29       0
SC_26656         RG_SANTACRUZ     2176127201       1.0000     30.60      100.00     5.56       0
SC_26657         RG_SANTACRUZ     2176129501       1.0000     78.50      100.00     5.68       0
SC_26658         RG_SANTACRUZ     2176129501       1.0000     65.30      100.00     5.34       0
SC_26664         RG_SANTACRUZ     2176138202       1.0000     60.30      100.00     15.73      0
SC_26888         RG_SANTACRUZ     2176088001       1.0000     95.00      100.00     11.34      0
SC_26889         RG_SANTACRUZ     2177080101       1.0000     27.30      100.00     6.18       0
SC_26890         RG_SANTACRUZ     2177080101       1.0000     66.40      100.00     6.63       0
SC_26891         RG_SANTACRUZ     2177080301       1.0000     5.00       100.00     6.25       0
SC_26892         RG_SANTACRUZ     2177080402       1.0000     7.40       100.00     9.14       0
SC_26893         RG_SANTACRUZ     2176089502       1.0000     30.60      100.00     6.29       0
SC_26894         RG_SANTACRUZ     2176089605       1.0000     51.20      100.00     5.95       0
SC_26895         RG_SANTACRUZ     2176089701       1.0000     64.50      100.00     13.23      0
SC_26896         RG_SANTACRUZ     2176088802       1.0000     72.70      100.00     23.91      0
SC_26897         RG_SANTACRUZ     2176088902       1.0000     94.20      100.00     17.94      0
SC_26898         RG_SANTACRUZ     2176098001       1.0000     75.20      100.00     22.97      0
SC_26899         RG_SANTACRUZ     2176098001       1.0000     71.90      100.00     9.38       0
SC_26900         RG_SANTACRUZ     2176098001       1.0000     78.50      100.00     9.96       0
SC_26901         RG_SANTACRUZ     2177092401       1.0000     95.00      100.00     5.94       0
SC_26902         RG_SANTACRUZ     2177092501       1.0000     95.00      100.00     4.01       0
SC_26903         RG_SANTACRUZ     2177091704       1.0000     92.60      100.00     7.13       0
SC_26904         RG_SANTACRUZ     2177090701       1.0000     95.00      100.00     4.59       0
SC_26905         RG_SANTACRUZ     2177090803       1.0000     90.10      100.00     5.42       0
SC_26906         RG_SANTACRUZ     2177090801       1.0000     71.10      100.00     3.82       0
SC_26907         RG_SANTACRUZ     2176099901       1.0000     88.40      100.00     10.79      0
SC_26908         RG_SANTACRUZ     2176099901       1.0000     82.60      100.00     5.81       0
SC_26909         RG_SANTACRUZ     2176107201       1.0000     78.50      100.00     15.97      0
SC_26910         RG_SANTACRUZ     2176109301       1.0000     95.00      100.00     14.23      0
SC_26911         RG_SANTACRUZ     2176109301       1.0000     95.00      100.00     9.56       0
SC_26912         RG_SANTACRUZ     2176108401       1.0000     95.00      100.00     7.25       0
SC_26913         RG_SANTACRUZ     2176108401       1.0000     95.00      100.00     3.32       0
SC_26914         RG_SANTACRUZ     2176109702       1.0000     90.90      100.00     6.44       0
SC_26915         RG_SANTACRUZ     2176109703       1.0000     95.00      100.00     8.10       0
SC_26916         RG_SANTACRUZ     2176109704       1.0000     95.00      100.00     9.87       0
SC_26917         RG_SANTACRUZ     2176119001       1.0000     95.00      100.00     7.68       0
SC_26918         RG_SANTACRUZ     2176119002       1.0000     72.70      100.00     7.10       0
SC_26919         RG_SANTACRUZ     2176119101       1.0000     78.50      100.00     4.66       0
SC_26920         RG_SANTACRUZ     2176119102       1.0000     89.30      100.00     6.01       0
SC_26921         RG_SANTACRUZ     2176119102       1.0000     55.40      100.00     8.92       0
SC_26922         RG_SANTACRUZ     2177110501       1.0000     93.40      100.00     4.51       0
SC_26923         RG_SANTACRUZ     2177110501       1.0000     69.40      100.00     7.89       0
SC_26924         RG_SANTACRUZ     2177110601       1.0000     95.00      100.00     4.19       0
SC_26925         RG_SANTACRUZ     2177110601       1.0000     95.00      100.00     6.32       0
SC_26926         RG_SANTACRUZ     2176119901       1.0000     95.00      100.00     8.22       0
SC_26927         RG_SANTACRUZ     2176119901       1.0000     63.60      100.00     2.81       0
SC_26928         RG_SANTACRUZ     2176119901       1.0000     95.00      100.00     2.74       0
SC_26929         RG_SANTACRUZ     2176119901       1.0000     90.10      100.00     2.41       0
SC_26930         RG_SANTACRUZ     2176127201       1.0000     81.00      100.00     2.99       0
SC_26931         RG_SANTACRUZ     2177120501       1.0000     95.00      100.00     5.25       0
SC_26932         RG_SANTACRUZ     2177120501       1.0000     95.00      100.00     3.80       0
SC_26933         RG_SANTACRUZ     2176129501       1.0000     95.00      100.00     3.86       0
SC_26934         RG_SANTACRUZ     2176129602       1.0000     33.90      100.00     3.91       0
SC_26939         RG_SANTACRUZ     2176138202       1.0000     94.20      100.00     8.75       0
SC_26940         RG_SANTACRUZ     2176138202       1.0000     95.00      100.00     5.43       0
SC_26941         RG_SANTACRUZ     2176138301       1.0000     57.00      100.00     14.15      0
SC_27163         RG_SANTACRUZ     2177080101       1.0000     15.70      100.00     7.01       0
SC_27164         RG_SANTACRUZ     2177080201       1.0000     27.30      100.00     5.63       0
SC_27165         RG_SANTACRUZ     2177080302       1.0000     19.80      100.00     10.78      0
SC_27166         RG_SANTACRUZ     2177080403       1.0000     39.70      100.00     6.52       0
SC_27167         RG_SANTACRUZ     2177080501       1.0000     52.10      100.00     13.54      0
SC_27168         RG_SANTACRUZ     2177080601       1.0000     25.60      100.00     9.96       0
SC_27169         RG_SANTACRUZ     2177080701       1.0000     62.80      100.00     11.77      0
SC_27170         RG_SANTACRUZ     2177081702       1.0000     84.30      100.00     15.17      0
SC_27171         RG_SANTACRUZ     2176088801       1.0000     51.20      100.00     13.56      0
SC_27172         RG_SANTACRUZ     2176098001       1.0000     25.60      100.00     18.42      0
SC_27173         RG_SANTACRUZ     2176098001       1.0000     91.70      100.00     7.89       0
SC_27174         RG_SANTACRUZ     2177093304       1.0000     78.50      100.00     9.21       0
SC_27175         RG_SANTACRUZ     2177092402       1.0000     84.30      100.00     23.63      0
SC_27176         RG_SANTACRUZ     2177092501       1.0000     62.80      100.00     10.97      0
SC_27177         RG_SANTACRUZ     2177092501       1.0000     88.40      100.00     5.01       0
SC_27178         RG_SANTACRUZ     2177091704       1.0000     95.00      100.00     11.71      0
SC_27179         RG_SANTACRUZ     2177090701       1.0000     93.40      100.00     4.98       0
SC_27180         RG_SANTACRUZ     2177090803       1.0000     90.10      100.00     5.08       0
SC_27181         RG_SANTACRUZ     2177090801       1.0000     95.00      100.00     9.12       0
SC_27182         RG_SANTACRUZ     2176099901       1.0000     82.60      100.00     12.38      0
SC_27183         RG_SANTACRUZ     2177101201       1.0000     88.40      100.00     17.16      0
SC_27184         RG_SANTACRUZ     2177100305       1.0000     95.00      100.00     4.73       0
SC_27185         RG_SANTACRUZ     2177100303       1.0000     83.50      100.00     4.77       0
SC_27186         RG_SANTACRUZ     2177100302       1.0000     70.20      100.00     3.21       0
SC_27187         RG_SANTACRUZ     2176109302       1.0000     90.90      100.00     3.10       0
SC_27188         RG_SANTACRUZ     2177101703       1.0000     92.70      100.00     4.76       0
SC_27189         RG_SANTACRUZ     2177100702       1.0000     90.10      100.00     9.50       0
SC_27190         RG_SANTACRUZ     2177100702       1.0000     78.50      100.00     6.40       0
SC_27191         RG_SANTACRUZ     2177110002       1.0000     90.90      100.00     8.80       0
SC_27192         RG_SANTACRUZ     2177110002       1.0000     94.20      100.00     9.08       0
SC_27193         RG_SANTACRUZ     2177110101       1.0000     90.10      100.00     8.31       0
SC_27194         RG_SANTACRUZ     2177111201       1.0000     53.70      100.00     10.45      0
SC_27195         RG_SANTACRUZ     2177111301       1.0000     78.50      100.00     11.24      0
SC_27196         RG_SANTACRUZ     2177110501       1.0000     52.90      100.00     13.04      0
SC_27197         RG_SANTACRUZ     2177110501       1.0000     80.20      100.00     6.31       0
SC_27198         RG_SANTACRUZ     2177110602       1.0000     91.70      100.00     4.95       0
SC_27199         RG_SANTACRUZ     2177110602       1.0000     95.00      100.00     4.63       0
SC_27200         RG_SANTACRUZ     2177110601       1.0000     87.60      100.00     4.71       0
SC_27201         RG_SANTACRUZ     2176119901       1.0000     66.10      100.00     2.76       0
SC_27202         RG_SANTACRUZ     2176119901       1.0000     88.40      100.00     2.70       0
SC_27203         RG_SANTACRUZ     2176119901       1.0000     59.50      100.00     7.38       0
SC_27204         RG_SANTACRUZ     2176119901       1.0000     63.60      100.00     11.09      0
SC_27205         RG_SANTACRUZ     2177120501       1.0000     95.00      100.00     4.89       0
SC_27206         RG_SANTACRUZ     2177120501       1.0000     95.00      100.00     3.40       0
SC_27207         RG_SANTACRUZ     2177120501       1.0000     95.00      100.00     5.66       0
SC_27208         RG_SANTACRUZ     2177120601       1.0000     35.50      100.00     2.99       0
SC_27209         RG_SANTACRUZ     2177121801       1.0000     11.60      100.00     1.94       0
SC_27212         RG_SANTACRUZ     2177121802       1.0000     69.10      100.00     7.10       0
SC_27213         RG_SANTACRUZ     2176138202       1.0000     95.00      100.00     6.71       0
SC_27214         RG_SANTACRUZ     2176138202       1.0000     95.00      100.00     24.79      0
SC_27215         RG_SANTACRUZ     2176138301       1.0000     95.00      100.00     7.98       0
SC_27216         RG_SANTACRUZ     2176138401       1.0000     83.50      100.00     5.13       0
SC_27217         RG_SANTACRUZ     2177131601       1.0000     44.60      100.00     14.72      0
SC_27436         RG_SANTACRUZ     2177081103       1.0000     33.10      100.00     7.89       0
SC_27437         RG_SANTACRUZ     2177081202       1.0000     44.50      100.00     8.49       0
SC_27438         RG_SANTACRUZ     2177080304       1.0000     70.20      100.00     3.59       0
SC_27439         RG_SANTACRUZ     2177080301       1.0000     85.10      100.00     3.72       0
SC_27440         RG_SANTACRUZ     2177080402       1.0000     61.20      100.00     8.41       0
SC_27441         RG_SANTACRUZ     2177081701       1.0000     76.90      100.00     11.44      0
SC_27442         RG_SANTACRUZ     2177081703       1.0000     65.30      100.00     17.79      0
SC_27443         RG_SANTACRUZ     2177082701       1.0000     90.10      100.00     14.89      0
SC_27444         RG_SANTACRUZ     2177082801       1.0000     80.20      100.00     13.50      0
SC_27445         RG_SANTACRUZ     2177082806       1.0000     68.60      100.00     16.67      0
SC_27446         RG_SANTACRUZ     2177093203       1.0000     88.40      100.00     10.44      0
SC_27447         RG_SANTACRUZ     2177093304       1.0000     95.00      100.00     7.69       0
SC_27448         RG_SANTACRUZ     2177093401       1.0000     95.00      100.00     14.46      0
SC_27449         RG_SANTACRUZ     2177092508       1.0000     81.00      100.00     20.71      0
SC_27450         RG_SANTACRUZ     2177092501       1.0000     56.20      100.00     9.03       0
SC_27451         RG_SANTACRUZ     2177092601       1.0000     86.00      100.00     3.53       0
SC_27452         RG_SANTACRUZ     2177091702       1.0000     72.70      100.00     9.17       0
SC_27453         RG_SANTACRUZ     2177090701       1.0000     94.20      100.00     5.68       0
SC_27454         RG_SANTACRUZ     2177090803       1.0000     95.00      100.00     5.88       0
SC_27455         RG_SANTACRUZ     2176099902       1.0000     87.60      100.00     12.24      0
SC_27456         RG_SANTACRUZ     2177101203       1.0000     89.30      100.00     8.22       0
SC_27457         RG_SANTACRUZ     2177101203       1.0000     90.10      100.00     8.05       0
SC_27458         RG_SANTACRUZ     2177101202       1.0000     82.60      100.00     5.45       0
SC_27459         RG_SANTACRUZ     2177102301       1.0000     87.60      100.00     2.83       0
SC_27460         RG_SANTACRUZ     2177101704       1.0000     93.40      100.00     7.13       0
SC_27461         RG_SANTACRUZ     2177101704       1.0000     95.00      100.00     7.17       0
SC_27462         RG_SANTACRUZ     2177101704       1.0000     80.20      100.00     8.91       0
SC_27463         RG_SANTACRUZ     2177100704       1.0000     95.00      100.00     3.39       0
SC_27464         RG_SANTACRUZ     2177110002       1.0000     95.00      100.00     6.67       0
SC_27465         RG_SANTACRUZ     2177110104       1.0000     71.10      100.00     13.21      0
SC_27466         RG_SANTACRUZ     2177110104       1.0000     95.00      100.00     11.08      0
SC_27467         RG_SANTACRUZ     2177111202       1.0000     90.90      100.00     10.69      0
SC_27468         RG_SANTACRUZ     2177111302       1.0000     94.20      100.00     10.46      0
SC_27469         RG_SANTACRUZ     2177112401       1.0000     17.40      100.00     12.55      0
SC_27470         RG_SANTACRUZ     2177112402       1.0000     72.70      100.00     11.68      0
SC_27471         RG_SANTACRUZ     2177110602       1.0000     62.00      100.00     5.39       0
SC_27472         RG_SANTACRUZ     2177110602       1.0000     58.70      100.00     4.26       0
SC_27473         RG_SANTACRUZ     2177113702       1.0000     76.00      100.00     4.12       0
SC_27474         RG_SANTACRUZ     2177113803       1.0000     56.20      100.00     4.44       0
SC_27475         RG_SANTACRUZ     2176119901       1.0000     57.00      100.00     4.82       0
SC_27476         RG_SANTACRUZ     2176119901       1.0000     95.00      100.00     4.65       0
SC_27477         RG_SANTACRUZ     2176119901       1.0000     94.20      100.00     3.79       0
SC_27478         RG_SANTACRUZ     2177120602       1.0000     90.10      100.00     4.34       0
SC_27479         RG_SANTACRUZ     2177120602       1.0000     84.30      100.00     7.09       0
SC_27480         RG_SANTACRUZ     2177120602       1.0000     95.00      100.00     6.57       0
SC_27481         RG_SANTACRUZ     2177120602       1.0000     95.00      100.00     6.01       0
SC_27482         RG_SANTACRUZ     2177121801       1.0000     76.90      100.00     4.86       0
SC_27483         RG_SANTACRUZ     2177121802       1.0000     78.50      100.00     4.54       0
SC_27484         RG_SANTACRUZ     2177121803       1.0000     88.40      100.00     7.81       0
SC_27485         RG_SANTACRUZ     2177121803       1.0000     81.80      100.00     5.03       0
SC_27486         RG_SANTACRUZ     2177123903       1.0000     72.70      100.00     5.55       0
SC_27487         RG_SANTACRUZ     2176138202       1.0000     95.00      100.00     9.21       0
SC_27488         RG_SANTACRUZ     2176138301       1.0000     90.90      100.00     6.67       0
SC_27489         RG_SANTACRUZ     2177131601       1.0000     95.00      100.00     7.68       0
SC_27490         RG_SANTACRUZ     2177131601       1.0000     71.90      100.00     9.65       0
SC_27709         RG_SANTACRUZ     2177083201       1.0000     75.20      100.00     9.34       0
SC_27710         RG_SANTACRUZ     2177080302       1.0000     73.60      100.00     10.72      0
SC_27711         RG_SANTACRUZ     2177081702       1.0000     34.70      100.00     8.74       0
SC_27712         RG_SANTACRUZ     2177081706       1.0000     57.90      100.00     16.09      0
SC_27713         RG_SANTACRUZ     2177082701       1.0000     73.60      100.00     9.60       0
SC_27714         RG_SANTACRUZ     2177082804       1.0000     72.70      100.00     14.96      0
SC_27715         RG_SANTACRUZ     2177083801       1.0000     95.00      100.00     13.92      0
SC_27716         RG_SANTACRUZ     2177083901       1.0000     69.40      100.00     17.68      0
SC_27717         RG_SANTACRUZ     2177093205       1.0000     87.60      100.00     20.61      0
SC_27718         RG_SANTACRUZ     2177093202       1.0000     65.30      100.00     15.30      0
SC_27719         RG_SANTACRUZ     2177093302       1.0000     95.00      100.00     15.11      0
SC_27720         RG_SANTACRUZ     2177092402       1.0000     72.70      100.00     14.89      0
SC_27721         RG_SANTACRUZ     2177092506       1.0000     31.40      100.00     13.73      0
SC_27722         RG_SANTACRUZ     2177092602       1.0000     65.30      100.00     5.49       0
SC_27723         RG_SANTACRUZ     2177092702       1.0000     65.30      100.00     8.58       0
SC_27724         RG_SANTACRUZ     2177092801       1.0000     68.60      100.00     9.31       0
SC_27725         RG_SANTACRUZ     2177093801       1.0000     95.00      100.00     6.27       0
SC_27726         RG_SANTACRUZ     2177103103       1.0000     94.20      100.00     7.10       0
SC_27727         RG_SANTACRUZ     2177103102       1.0000     89.30      100.00     9.29       0
SC_27728         RG_SANTACRUZ     2177102203       1.0000     90.10      100.00     11.91      0
SC_27729         RG_SANTACRUZ     2177102302       1.0000     91.70      100.00     5.61       0
SC_27730         RG_SANTACRUZ     2177102301       1.0000     95.00      100.00     4.65       0
SC_27731         RG_SANTACRUZ     2177102301       1.0000     95.00      100.00     3.37       0
SC_27732         RG_SANTACRUZ     2177102703       1.0000     92.70      100.00     4.43       0
SC_27733         RG_SANTACRUZ     2177102704       1.0000     88.40      100.00     6.20       0
SC_27734         RG_SANTACRUZ     2177102704       1.0000     94.20      100.00     9.32       0
SC_27735         RG_SANTACRUZ     2177102704       1.0000     95.00      100.00     6.80       0
SC_27736         RG_SANTACRUZ     2177110104       1.0000     94.20      100.00     8.43       0
SC_27737         RG_SANTACRUZ     2177111101       1.0000     92.60      100.00     5.32       0
SC_27738         RG_SANTACRUZ     2177111301       1.0000     95.00      100.00     9.31       0
SC_27739         RG_SANTACRUZ     2177112301       1.0000     95.00      100.00     10.56      0
SC_27740         RG_SANTACRUZ     2177112403       1.0000     90.90      100.00     8.31       0
SC_27741         RG_SANTACRUZ     2177113501       1.0000     91.70      100.00     7.77       0
SC_27742         RG_SANTACRUZ     2177113602       1.0000     88.40      100.00     4.30       0
SC_27743         RG_SANTACRUZ     2177113702       1.0000     90.90      100.00     4.52       0
SC_27744         RG_SANTACRUZ     2177113801       1.0000     76.90      100.00     3.43       0
SC_27745         RG_SANTACRUZ     2177113803       1.0000     79.30      100.00     3.00       0
SC_27746         RG_SANTACRUZ     2177113803       1.0000     63.60      100.00     6.70       0
SC_27747         RG_SANTACRUZ     2177113803       1.0000     95.00      100.00     1.92       0
SC_27748         RG_SANTACRUZ     2177113803       1.0000     95.00      100.00     3.70       0
SC_27749         RG_SANTACRUZ     2177120602       1.0000     80.20      100.00     5.84       0
SC_27750         RG_SANTACRUZ     2177120602       1.0000     66.10      100.00     6.59       0
SC_27751         RG_SANTACRUZ     2177120602       1.0000     95.00      100.00     5.27       0
SC_27752         RG_SANTACRUZ     2177120602       1.0000     95.00      100.00     2.70       0
SC_27753         RG_SANTACRUZ     2177122802       1.0000     95.00      100.00     3.32       0
SC_27754         RG_SANTACRUZ     2177122802       1.0000     95.00      100.00     5.59       0
SC_27755         RG_SANTACRUZ     2177122803       1.0000     72.70      100.00     7.80       0
SC_27756         RG_SANTACRUZ     2177123903       1.0000     45.50      100.00     4.95       0
SC_27757         RG_SANTACRUZ     2177123903       1.0000     86.00      100.00     7.04       0
SC_27758         RG_SANTACRUZ     2177134001       1.0000     82.60      100.00     5.08       0
SC_27759         RG_SANTACRUZ     2177131601       1.0000     86.80      100.00     7.28       0
SC_27760         RG_SANTACRUZ     2177131601       1.0000     77.70      100.00     6.51       0
SC_27761         RG_SANTACRUZ     2177131601       1.0000     95.00      100.00     7.53       0
SC_27981         RG_SANTACRUZ     2177084301       1.0000     12.40      100.00     6.15       0
SC_27982         RG_SANTACRUZ     2177082801       1.0000     23.10      100.00     6.76       0
SC_27983         RG_SANTACRUZ     2177082805       1.0000     76.90      100.00     8.04       0
SC_27984         RG_SANTACRUZ     2177083801       1.0000     62.00      100.00     3.86       0
SC_27985         RG_SANTACRUZ     2177083902       1.0000     58.70      100.00     11.04      0
SC_27986         RG_SANTACRUZ     2177094002       1.0000     89.30      100.00     7.54       0
SC_27987         RG_SANTACRUZ     2177094102       1.0000     80.20      100.00     5.70       0
SC_27988         RG_SANTACRUZ     2177093203       1.0000     62.80      100.00     7.75       0
SC_27989         RG_SANTACRUZ     2177093306       1.0000     50.40      100.00     6.99       0
SC_27990         RG_SANTACRUZ     2177093403       1.0000     32.20      100.00     9.67       0
SC_27991         RG_SANTACRUZ     2177092510       1.0000     51.20      100.00     6.68       0
SC_27992         RG_SANTACRUZ     2177092507       1.0000     24.00      100.00     5.51       0
SC_27993         RG_SANTACRUZ     2177092801       1.0000     46.30      100.00     7.34       0
SC_27994         RG_SANTACRUZ     2177093802       1.0000     72.70      100.00     8.02       0
SC_27995         RG_SANTACRUZ     2177093901       1.0000     92.60      100.00     10.47      0
SC_27996         RG_SANTACRUZ     2177104001       1.0000     95.00      100.00     7.41       0
SC_27997         RG_SANTACRUZ     2177103103       1.0000     59.50      100.00     7.21       0
SC_27998         RG_SANTACRUZ     2177103202       1.0000     86.80      100.00     9.62       0
SC_27999         RG_SANTACRUZ     2177103301       1.0000     66.10      100.00     6.15       0
SC_28000         RG_SANTACRUZ     2177103301       1.0000     92.60      100.00     3.33       0
SC_28001         RG_SANTACRUZ     2177103301       1.0000     95.00      100.00     3.60       0
SC_28002         RG_SANTACRUZ     2177102704       1.0000     94.50      100.00     4.44       0
SC_28003         RG_SANTACRUZ     2177102704       1.0000     89.30      100.00     6.31       0
SC_28004         RG_SANTACRUZ     2177102704       1.0000     95.00      100.00     5.21       0
SC_28005         RG_SANTACRUZ     2177102704       1.0000     91.70      100.00     9.34       0
SC_28006         RG_SANTACRUZ     2177111101       1.0000     89.30      100.00     17.31      0
SC_28007         RG_SANTACRUZ     2177111101       1.0000     95.00      100.00     7.71       0
SC_28008         RG_SANTACRUZ     2177112301       1.0000     95.00      100.00     2.65       0
SC_28009         RG_SANTACRUZ     2177112407       1.0000     95.00      100.00     2.50       0
SC_28010         RG_SANTACRUZ     2177113401       1.0000     95.00      100.00     7.98       0
SC_28011         RG_SANTACRUZ     2177113505       1.0000     77.70      100.00     9.94       0
SC_28012         RG_SANTACRUZ     2177113605       1.0000     69.40      100.00     5.92       0
SC_28013         RG_SANTACRUZ     2177113702       1.0000     33.10      100.00     5.56       0
SC_28014         RG_SANTACRUZ     2177113801       1.0000     68.60      100.00     5.48       0
SC_28015         RG_SANTACRUZ     2177113803       1.0000     62.00      100.00     5.02       0
SC_28016         RG_SANTACRUZ     2177113803       1.0000     63.60      100.00     5.66       0
SC_28017         RG_SANTACRUZ     2177113803       1.0000     95.00      100.00     2.19       0
SC_28018         RG_SANTACRUZ     2177113803       1.0000     95.00      100.00     4.06       0
SC_28019         RG_SANTACRUZ     2177120602       1.0000     89.30      100.00     6.33       0
SC_28020         RG_SANTACRUZ     2177120602       1.0000     77.70      100.00     3.11       0
SC_28021         RG_SANTACRUZ     2177120602       1.0000     93.40      100.00     4.51       0
SC_28022         RG_SANTACRUZ     2177123801       1.0000     95.00      100.00     4.13       0
SC_28023         RG_SANTACRUZ     2177123802       1.0000     81.00      100.00     7.06       0
SC_28024         RG_SANTACRUZ     2177123803       1.0000     66.10      100.00     5.34       0
SC_28025         RG_SANTACRUZ     2177123902       1.0000     59.50      100.00     8.98       0
SC_28026         RG_SANTACRUZ     2177123904       1.0000     67.30      100.00     10.09      0
SC_28027         RG_SANTACRUZ     2177134001       1.0000     79.30      100.00     9.37       0
SC_28028         RG_SANTACRUZ     2177134003       1.0000     72.70      100.00     6.21       0
SC_28029         RG_SANTACRUZ     2177135201       1.0000     95.00      100.00     5.66       0
SC_28030         RG_SANTACRUZ     2177131601       1.0000     74.40      100.00     6.99       0
SC_28031         RG_SANTACRUZ     2177131601       1.0000     95.00      100.00     15.06      0
SC_28032         RG_SANTACRUZ     2177131701       1.0000     68.60      100.00     33.26      0
SC_28253         RG_SANTACRUZ     2177082806       1.0000     65.30      100.00     8.84       0
SC_28254         RG_SANTACRUZ     2177083802       1.0000     74.40      100.00     4.70       0
SC_28255         RG_SANTACRUZ     2177083903       1.0000     78.50      100.00     3.80       0
SC_28256         RG_SANTACRUZ     2177084902       1.0000     71.90      100.00     8.57       0
SC_28257         RG_SANTACRUZ     2177094004       1.0000     53.70      100.00     9.27       0
SC_28258         RG_SANTACRUZ     2177094108       1.0000     58.70      100.00     8.85       0
SC_28259         RG_SANTACRUZ     2177094201       1.0000     57.90      100.00     12.61      0
SC_28260         RG_SANTACRUZ     2177093307       1.0000     14.90      100.00     4.90       0
SC_28261         RG_SANTACRUZ     2177093303       1.0000     57.00      100.00     6.04       0
SC_28262         RG_SANTACRUZ     2177092403       1.0000     32.20      100.00     4.45       0
SC_28263         RG_SANTACRUZ     2177092507       1.0000     29.80      100.00     5.45       0
SC_28264         RG_SANTACRUZ     2177093803       1.0000     29.80      100.00     7.48       0
SC_28265         RG_SANTACRUZ     2177093901       1.0000     62.80      100.00     9.25       0
SC_28266         RG_SANTACRUZ     2177094902       1.0000     74.40      100.00     10.11      0
SC_28267         RG_SANTACRUZ     2177104004       1.0000     95.00      100.00     13.57      0
SC_28268         RG_SANTACRUZ     2177104103       1.0000     95.00      100.00     7.42       0
SC_28269         RG_SANTACRUZ     2177104201       1.0000     95.00      100.00     10.12      0
SC_28270         RG_SANTACRUZ     2177104301!      1.0000     71.90      100.00     6.80       0
SC_28271         RG_SANTACRUZ     2177104301!      1.0000     76.00      100.00     2.21       0
SC_28272         RG_SANTACRUZ     2177105501!      1.0000     95.00      100.00     5.43       0
SC_28273         RG_SANTACRUZ     2177105501!      1.0000     89.10      100.00     18.47      0
SC_28274         RG_SANTACRUZ     2177102704       1.0000     91.70      100.00     9.30       0
SC_28275         RG_SANTACRUZ     2177102704       1.0000     77.70      100.00     3.99       0
SC_28276         RG_SANTACRUZ     2177102704       1.0000     95.00      100.00     22.97      0
SC_28277         RG_SANTACRUZ     2177116201       1.0000     82.60      100.00     15.13      0
SC_28278         RG_SANTACRUZ     2177116201       1.0000     86.00      100.00     20.51      0
SC_28279         RG_SANTACRUZ     2177116201       1.0000     68.60      100.00     10.44      0
SC_28280         RG_SANTACRUZ     2177114501       1.0000     82.60      100.00     7.28       0
SC_28281         RG_SANTACRUZ     2177114501       1.0000     95.00      100.00     9.46       0
SC_28282         RG_SANTACRUZ     2177114502       1.0000     72.70      100.00     5.46       0
SC_28283         RG_SANTACRUZ     2177114502       1.0000     38.00      100.00     6.39       0
SC_28284         RG_SANTACRUZ     2177113703       1.0000     5.80       100.00     4.90       0
SC_28285         RG_SANTACRUZ     2177113802       1.0000     5.00       100.00     12.67      0
SC_28286         RG_SANTACRUZ     2177113804       1.0000     21.50      100.00     6.47       0
SC_28287         RG_SANTACRUZ     2177113803       1.0000     79.30      100.00     5.33       0
SC_28288         RG_SANTACRUZ     2177113803       1.0000     81.80      100.00     2.65       0
SC_28289         RG_SANTACRUZ     2177113803       1.0000     95.00      100.00     2.14       0
SC_28290         RG_SANTACRUZ     2177113803       1.0000     95.00      100.00     3.25       0
SC_28291         RG_SANTACRUZ     2177120602       1.0000     95.00      100.00     5.09       0
SC_28292         RG_SANTACRUZ     2177123803       1.0000     95.00      100.00     2.95       0
SC_28293         RG_SANTACRUZ     2177123803       1.0000     86.80      100.00     6.68       0
SC_28294         RG_SANTACRUZ     2177123803       1.0000     65.30      100.00     10.48      0
SC_28295         RG_SANTACRUZ     2177123803       1.0000     67.80      100.00     3.66       0
SC_28296         RG_SANTACRUZ     2177124903       1.0000     48.80      100.00     7.82       0
SC_28297         RG_SANTACRUZ     2177134002       1.0000     84.50      100.00     12.92      0
SC_28298         RG_SANTACRUZ     2177134003       1.0000     52.90      100.00     16.52      0
SC_28299         RG_SANTACRUZ     2177135104       1.0000     65.30      100.00     10.49      0
SC_28300         RG_SANTACRUZ     2177135201       1.0000     75.20      100.00     8.32       0
SC_28301         RG_SANTACRUZ     2177135201       1.0000     60.30      100.00     6.86       0
SC_28302         RG_SANTACRUZ     2177131701       1.0000     93.40      100.00     18.79      0
SC_28303         RG_SANTACRUZ     2177131701       1.0000     81.00      100.00     24.78      0
SC_28304         RG_SANTACRUZ     2177131701       1.0000     88.40      100.00     8.60       0
SC_28305         RG_SANTACRUZ     2177131701       1.0000     66.90      100.00     11.79      0
SC_28331         RG_SANTACRUZ     2177163301       1.0000     15.70      100.00     4.98       0
SC_28526         RG_SANTACRUZ     2177083903       1.0000     74.50      100.00     6.49       0
SC_28527         RG_SANTACRUZ     2177084902       1.0000     91.80      100.00     5.17       0
SC_28528         RG_SANTACRUZ     2177095001       1.0000     83.60      100.00     3.96       0
SC_28529         RG_SANTACRUZ     2177095004       1.0000     54.50      100.00     6.40       0
SC_28530         RG_SANTACRUZ     2177095101       1.0000     90.90      100.00     10.60      0
SC_28531         RG_SANTACRUZ     2177096103       1.0000     47.30      100.00     6.32       0
SC_28532         RG_SANTACRUZ     2177097201       1.0000     23.60      100.00     5.94       0
SC_28533         RG_SANTACRUZ     2177097302       1.0000     80.00      100.00     5.67       0
SC_28534         RG_SANTACRUZ     2177097603       1.0000     70.90      100.00     9.10       0
SC_28535         RG_SANTACRUZ     2177097703       1.0000     51.80      100.00     8.29       0
SC_28536         RG_SANTACRUZ     2177097701       1.0000     20.00      100.00     8.01       0
SC_28537         RG_SANTACRUZ     2177096905       1.0000     61.80      100.00     6.48       0
SC_28538         RG_SANTACRUZ     2177096901       1.0000     80.90      100.00     3.59       0
SC_28539         RG_SANTACRUZ     2177105015       1.0000     85.50      100.00     5.28       0
SC_28540         RG_SANTACRUZ     2177105102!      1.0000     54.50      100.00     4.85       0
SC_28541         RG_SANTACRUZ     2177105202       1.0000     47.30      100.00     3.23       0
SC_28542         RG_SANTACRUZ     2177105315!      1.0000     61.80      100.00     2.84       0
SC_28543         RG_SANTACRUZ     2177105404!      1.0000     26.40      100.00     2.97       0
SC_28544         RG_SANTACRUZ     2177105501!      1.0000     95.00      100.00     17.00      0
SC_28545         RG_SANTACRUZ     2177105501!      1.0000     95.00      100.00     17.26      0
SC_28546         RG_SANTACRUZ     2177105501!      1.0000     86.40      100.00     13.61      0
SC_28547         RG_SANTACRUZ     2177105501!      1.0000     56.40      100.00     9.98       0
SC_28548         RG_SANTACRUZ     2177116202!      1.0000     95.00      100.00     11.64      0
SC_28549         RG_SANTACRUZ     2177116202!      1.0000     73.60      100.00     12.65      0
SC_28550         RG_SANTACRUZ     2177116201       1.0000     95.00      100.00     22.41      0
SC_28551         RG_SANTACRUZ     2177116201       1.0000     86.40      100.00     22.99      0
SC_28552         RG_SANTACRUZ     2177116201       1.0000     54.50      100.00     6.60       0
SC_28553         RG_SANTACRUZ     2177114503       1.0000     30.00      100.00     8.25       0
SC_28554         RG_SANTACRUZ     2177115502       1.0000     63.60      100.00     3.94       0
SC_28555         RG_SANTACRUZ     2177115501       1.0000     45.50      100.00     6.95       0
SC_28556         RG_SANTACRUZ     2177116701       1.0000     55.50      100.00     10.17      0
SC_28557         RG_SANTACRUZ     2177113804       1.0000     45.50      100.00     9.22       0
SC_28558         RG_SANTACRUZ     2177113804       1.0000     65.50      100.00     4.56       0
SC_28559         RG_SANTACRUZ     2177113804       1.0000     95.00      100.00     3.47       0
SC_28560         RG_SANTACRUZ     2177113803       1.0000     95.00      100.00     1.86       0
SC_28561         RG_SANTACRUZ     2177113803       1.0000     95.00      100.00     3.89       0
SC_28562         RG_SANTACRUZ     2177129101       1.0000     95.00      100.00     4.14       0
SC_28563         RG_SANTACRUZ     2177123803       1.0000     95.00      100.00     7.73       0
SC_28564         RG_SANTACRUZ     2177123803       1.0000     87.30      100.00     5.32       0
SC_28565         RG_SANTACRUZ     2177123803       1.0000     86.40      100.00     5.65       0
SC_28566         RG_SANTACRUZ     2177124904       1.0000     63.60      100.00     7.43       0
SC_28567         RG_SANTACRUZ     2177124904       1.0000     90.00      100.00     3.93       0
SC_28568         RG_SANTACRUZ     2177124904       1.0000     44.50      100.00     8.43       0
SC_28569         RG_SANTACRUZ     2177135001       1.0000     56.00      100.00     20.87      0
SC_28570         RG_SANTACRUZ     2177135102       1.0000     90.00      100.00     25.11      0
SC_28571         RG_SANTACRUZ     2177135201       1.0000     81.80      100.00     22.12      0
SC_28572         RG_SANTACRUZ     2177135201       1.0000     53.60      100.00     25.22      0
SC_28573         RG_SANTACRUZ     2177136205       1.0000     88.20      100.00     10.22      0
SC_28574         RG_SANTACRUZ     2177138401       1.0000     70.00      100.00     15.40      0
SC_28575         RG_SANTACRUZ     2177138401       1.0000     38.20      100.00     19.50      0
SC_28576         RG_SANTACRUZ     2177138904       1.0000     42.70      100.00     4.30       0
SC_28577         RG_SANTACRUZ     2177147001       1.0000     40.90      100.00     6.70       0
SC_28578         RG_SANTACRUZ     2177147001       1.0000     46.40      100.00     7.32       0
SC_28584         RG_SANTACRUZ     2177143401       1.0000     40.90      100.00     8.76       0
SC_28602         RG_SANTACRUZ     2177163301       1.0000     50.00      100.00     5.63       0
SC_28603         RG_SANTACRUZ     2177163301       1.0000     61.80      100.00     7.29       0
SC_28801         RG_SANTACRUZ     2177095004       1.0000     87.60      100.00     4.84       0
SC_28802         RG_SANTACRUZ     2177095006       1.0000     86.00      100.00     2.46       0
SC_28803         RG_SANTACRUZ     2177095101       1.0000     95.00      100.00     6.24       0
SC_28804         RG_SANTACRUZ     2177096102       1.0000     41.30      100.00     11.39      0
SC_28805         RG_SANTACRUZ     2177096201       1.0000     5.00       100.00     8.25       0
SC_28806         RG_SANTACRUZ     2177097301       1.0000     39.70      100.00     5.38       0
SC_28807         RG_SANTACRUZ     2177097304       1.0000     27.30      100.00     4.80       0
SC_28808         RG_SANTACRUZ     2177097605       1.0000     28.10      100.00     9.80       0
SC_28809         RG_SANTACRUZ     2177097601       1.0000     62.00      100.00     8.94       0
SC_28810         RG_SANTACRUZ     2177097701       1.0000     93.40      100.00     7.24       0
SC_28811         RG_SANTACRUZ     2177096804!      1.0000     77.70      100.00     7.68       0
SC_28812         RG_SANTACRUZ     2177096904!      1.0000     90.90      100.00     5.10       0
SC_28813         RG_SANTACRUZ     2177095902       1.0000     66.90      100.00     3.52       0
SC_28814         RG_SANTACRUZ     2177105103       1.0000     16.50      100.00     2.19       0
SC_28815         RG_SANTACRUZ     2177105202       1.0000     5.00       100.00     2.67       0
SC_28816         RG_SANTACRUZ     2177106401       1.0000     52.10      100.00     3.08       0
SC_28817         RG_SANTACRUZ     2177106403       1.0000     86.00      100.00     2.68       0
SC_28818         RG_SANTACRUZ     2177107401       1.0000     95.00      100.00     21.03      0
SC_28819         RG_SANTACRUZ     2177105501!      1.0000     95.00      100.00     17.65      0
SC_28820         RG_SANTACRUZ     2177108501!      1.0000     95.00      100.00     14.03      0
SC_28821         RG_SANTACRUZ     2177108503       1.0000     84.30      100.00     10.29      0
SC_28822         RG_SANTACRUZ     2177117101       1.0000     95.00      100.00     3.37       0
SC_28823         RG_SANTACRUZ     2177117101       1.0000     95.00      100.00     6.97       0
SC_28824         RG_SANTACRUZ     2177116202!      1.0000     95.00      100.00     27.01      0
SC_28825         RG_SANTACRUZ     2177116201       1.0000     67.80      100.00     10.99      0
SC_28826         RG_SANTACRUZ     2177116201       1.0000     38.00      100.00     5.10       0
SC_28827         RG_SANTACRUZ     2177115502       1.0000     55.40      100.00     8.15       0
SC_28828         RG_SANTACRUZ     2177116503       1.0000     67.80      100.00     5.09       0
SC_28829         RG_SANTACRUZ     2177116504       1.0000     77.70      100.00     4.30       0
SC_28830         RG_SANTACRUZ     2177116701       1.0000     78.50      100.00     8.84       0
SC_28831         RG_SANTACRUZ     2177117801       1.0000     93.40      100.00     7.95       0
SC_28832         RG_SANTACRUZ     2177117801       1.0000     80.20      100.00     4.72       0
SC_28833         RG_SANTACRUZ     2177117801       1.0000     95.00      100.00     2.39       0
SC_28834         RG_SANTACRUZ     2177129101       1.0000     95.00      100.00     3.85       0
SC_28835         RG_SANTACRUZ     2177129101       1.0000     95.00      100.00     7.36       0
SC_28836         RG_SANTACRUZ     2177129101       1.0000     95.00      100.00     7.92       0
SC_28837         RG_SANTACRUZ     2177129101       1.0000     92.60      100.00     5.86       0
SC_28838         RG_SANTACRUZ     2177124904       1.0000     92.60      100.00     2.84       0
SC_28839         RG_SANTACRUZ     2177124904       1.0000     95.00      100.00     10.51      0
SC_28840         RG_SANTACRUZ     2177124904       1.0000     95.00      100.00     7.99       0
SC_28841         RG_SANTACRUZ     2177124904       1.0000     95.00      100.00     3.88       0
SC_28842         RG_SANTACRUZ     2177124904       1.0000     83.50      100.00     4.65       0
SC_28843         RG_SANTACRUZ     2177135101       1.0000     92.70      100.00     25.32      0
SC_28844         RG_SANTACRUZ     2177136202       1.0000     95.00      100.00     18.22      0
SC_28845         RG_SANTACRUZ     2177136205       1.0000     81.80      100.00     23.80      0
SC_28846         RG_SANTACRUZ     2177136207       1.0000     40.50      100.00     17.08      0
SC_28847         RG_SANTACRUZ     2177138401       1.0000     25.60      100.00     14.49      0
SC_28848         RG_SANTACRUZ     2177138401       1.0000     84.30      100.00     29.17      0
SC_28849         RG_SANTACRUZ     2177138501       1.0000     92.60      100.00     28.89      0
SC_28850         RG_SANTACRUZ     2177139602       1.0000     90.10      100.00     10.00      0
SC_28851         RG_SANTACRUZ     2177138903       1.0000     5.80       100.00     6.34       0
SC_28852         RG_SANTACRUZ     2177147001       1.0000     11.60      100.00     3.63       0
SC_28853         RG_SANTACRUZ     2177147001       1.0000     14.00      100.00     5.51       0
SC_28857         RG_SANTACRUZ     2177145201       1.0000     72.70      100.00     16.61      0
SC_28858         RG_SANTACRUZ     2177143401       1.0000     88.40      100.00     7.61       0
SC_28859         RG_SANTACRUZ     2177143401       1.0000     40.50      100.00     12.74      0
SC_28863         RG_SANTACRUZ     2177155201       1.0000     45.50      100.00     22.24      0
SC_28864         RG_SANTACRUZ     2177155201       1.0000     55.40      100.00     18.64      0
SC_28865         RG_SANTACRUZ     2177155201       1.0000     75.20      100.00     31.33      0
SC_28866         RG_SANTACRUZ     2177155401       1.0000     50.40      100.00     10.60      0
SC_28867         RG_SANTACRUZ     2177155401       1.0000     57.00      100.00     11.05      0
SC_28875         RG_SANTACRUZ     2177164101       1.0000     5.00       100.00     5.43       0
SC_28876         RG_SANTACRUZ     2177163301       1.0000     68.60      100.00     6.60       0
SC_28877         RG_SANTACRUZ     2177163301       1.0000     35.50      100.00     4.67       0
SC_29079         RG_SANTACRUZ     2177096102       1.0000     85.10      100.00     3.12       0
SC_29080         RG_SANTACRUZ     2177096104       1.0000     95.00      100.00     10.83      0
SC_29081         RG_SANTACRUZ     2177097201       1.0000     57.90      100.00     13.53      0
SC_29082         RG_SANTACRUZ     2177097303       1.0000     35.50      100.00     9.54       0
SC_29083         RG_SANTACRUZ     2177097402       1.0000     20.70      100.00     8.15       0
SC_29084         RG_SANTACRUZ     2177098502       1.0000     46.30      100.00     6.84       0
SC_29085         RG_SANTACRUZ     2177097605       1.0000     46.30      100.00     7.31       0
SC_29086         RG_SANTACRUZ     2177097703       1.0000     80.20      100.00     13.49      0
SC_29087         RG_SANTACRUZ     2177097802       1.0000     68.60      100.00     6.05       0
SC_29088         RG_SANTACRUZ     2177097901!      1.0000     78.50      100.00     5.25       0
SC_29089         RG_SANTACRUZ     2177098901       1.0000     62.80      100.00     3.84       0
SC_29090         RG_SANTACRUZ     2177098901       1.0000     45.50      100.00     3.04       0
SC_29091         RG_SANTACRUZ     2177105203!      1.0000     31.40      100.00     3.50       0
SC_29092         RG_SANTACRUZ     2177106403       1.0000     17.40      100.00     2.51       0
SC_29093         RG_SANTACRUZ     2177107401       1.0000     91.70      100.00     3.36       0
SC_29094         RG_SANTACRUZ     2177107502!      1.0000     93.40      100.00     34.98      0
SC_29095         RG_SANTACRUZ     2177108502!      1.0000     95.00      100.00     21.50      0
SC_29096         RG_SANTACRUZ     2177108601       1.0000     95.00      100.00     15.80      0
SC_29097         RG_SANTACRUZ     2177109801!      1.0000     90.10      100.00     18.27      0
SC_29098         RG_SANTACRUZ     2177109902!      1.0000     64.50      100.00     7.24       0
SC_29099         RG_SANTACRUZ     2177118101!      1.0000     95.00      100.00     8.64       0
SC_29100         RG_SANTACRUZ     2177117101       1.0000     95.00      100.00     14.64      0
SC_29101         RG_SANTACRUZ     2177117101       1.0000     63.60      100.00     9.27       0
SC_29102         RG_SANTACRUZ     2177116202!      1.0000     52.90      100.00     5.75       0
SC_29103         RG_SANTACRUZ     2177116503       1.0000     79.30      100.00     7.75       0
SC_29104         RG_SANTACRUZ     2177116503       1.0000     81.80      100.00     8.74       0
SC_29105         RG_SANTACRUZ     2177116702       1.0000     91.70      100.00     4.43       0
SC_29106         RG_SANTACRUZ     2177117803       1.0000     84.30      100.00     4.40       0
SC_29107         RG_SANTACRUZ     2177117804       1.0000     95.00      100.00     4.54       0
SC_29108         RG_SANTACRUZ     2177117804       1.0000     95.00      100.00     3.61       0
SC_29109         RG_SANTACRUZ     2177117804       1.0000     95.00      100.00     6.55       0
SC_29110         RG_SANTACRUZ     2177129101       1.0000     82.60      100.00     14.37      0
SC_29111         RG_SANTACRUZ     2177129101       1.0000     95.00      100.00     15.33      0
SC_29112         RG_SANTACRUZ     2177129101       1.0000     95.00      100.00     10.18      0
SC_29113         RG_SANTACRUZ     2177129101       1.0000     87.60      100.00     13.92      0
SC_29114         RG_SANTACRUZ     2177129101       1.0000     82.60      100.00     6.70       0
SC_29115         RG_SANTACRUZ     2177124904       1.0000     83.50      100.00     13.34      0
SC_29116         RG_SANTACRUZ     2177124904       1.0000     95.00      100.00     18.18      0
SC_29117         RG_SANTACRUZ     2177124904       1.0000     88.40      100.00     10.14      0
SC_29118         RG_SANTACRUZ     2177135101       1.0000     95.00      100.00     1.78       0
SC_29119         RG_SANTACRUZ     2177137204       1.0000     95.00      100.00     2.94       0
SC_29120         RG_SANTACRUZ     2177137205       1.0000     95.00      100.00     2.82       0
SC_29121         RG_SANTACRUZ     2177137205       1.0000     94.20      100.00     3.94       0
SC_29122         RG_SANTACRUZ     2177137301       1.0000     95.00      100.00     3.16       0
SC_29123         RG_SANTACRUZ     2177138401       1.0000     86.80      100.00     5.50       0
SC_29124         RG_SANTACRUZ     2177138401       1.0000     83.50      100.00     28.83      0
SC_29125         RG_SANTACRUZ     2177138502       1.0000     87.60      100.00     22.06      0
SC_29126         RG_SANTACRUZ     2177139602       1.0000     95.00      100.00     13.76      0
SC_29127         RG_SANTACRUZ     2177138904       1.0000     89.30      100.00     14.27      0
SC_29128         RG_SANTACRUZ     2177138901       1.0000     52.90      100.00     10.15      0
SC_29129         RG_SANTACRUZ     2177147003       1.0000     47.90      100.00     7.13       0
SC_29130         RG_SANTACRUZ     2177147003       1.0000     25.60      100.00     11.88      0
SC_29131         RG_SANTACRUZ     2177145101       1.0000     24.80      100.00     11.21      0
SC_29132         RG_SANTACRUZ     2177145101       1.0000     38.00      100.00     6.46       0
SC_29133         RG_SANTACRUZ     2177145201       1.0000     58.70      100.00     19.67      0
SC_29134         RG_SANTACRUZ     2177145201       1.0000     90.90      100.00     11.85      0
SC_29135         RG_SANTACRUZ     2177143401       1.0000     57.90      100.00     12.05      0
SC_29136         RG_SANTACRUZ     2177143801       1.0000     27.30      100.00     22.65      0
SC_29137         RG_SANTACRUZ     2177143801       1.0000     42.10      100.00     22.71      0
SC_29138         RG_SANTACRUZ     2177155201       1.0000     66.10      100.00     36.46      0
SC_29139         RG_SANTACRUZ     2177155201       1.0000     88.40      100.00     21.51      0
SC_29140         RG_SANTACRUZ     2177155201       1.0000     90.90      100.00     12.33      0
SC_29141         RG_SANTACRUZ     2177155201       1.0000     59.50      100.00     38.60      0
SC_29142         RG_SANTACRUZ     2177155401       1.0000     86.00      100.00     25.34      0
SC_29143         RG_SANTACRUZ     2177155401       1.0000     89.30      100.00     1.86       0
SC_29144         RG_SANTACRUZ     2177155601       1.0000     60.00      100.00     5.14       0
SC_29148         RG_SANTACRUZ     2177156901       1.0000     38.00      100.00     24.06      0
SC_29149         RG_SANTACRUZ     2177156901       1.0000     60.30      100.00     3.61       0
SC_29150         RG_SANTACRUZ     2177156901       1.0000     63.60      100.00     1.85       0
SC_29151         RG_SANTACRUZ     2177156901       1.0000     66.10      100.00     3.29       0
SC_29152         RG_SANTACRUZ     2177163301       1.0000     32.20      100.00     8.94       0
SC_29357         RG_SANTACRUZ     2177096201       1.0000     78.50      100.00     12.62      0
SC_29358         RG_SANTACRUZ     2177097301       1.0000     76.90      100.00     16.64      0
SC_29359         RG_SANTACRUZ     2177097304       1.0000     81.80      100.00     9.20       0
SC_29360         RG_SANTACRUZ     2177098406       1.0000     57.00      100.00     13.79      0
SC_29361         RG_SANTACRUZ     2177098503       1.0000     42.10      100.00     17.84      0
SC_29362         RG_SANTACRUZ     2177098602       1.0000     95.00      100.00     7.23       0
SC_29363         RG_SANTACRUZ     2177098603       1.0000     86.00      100.00     4.00       0
SC_29364         RG_SANTACRUZ     2177098802       1.0000     53.70      100.00     2.64       0
SC_29365         RG_SANTACRUZ     2177098901       1.0000     18.20      100.00     4.99       0
SC_29366         RG_SANTACRUZ     2177098901       1.0000     5.00       100.00     4.45       0
SC_29367         RG_SANTACRUZ     2178100001       1.0000     24.00      100.00     1.83       0
SC_29368         RG_SANTACRUZ     2178100001       1.0000     24.80      100.00     4.03       0
SC_29369         RG_SANTACRUZ     2177107501!      1.0000     42.10      100.00     4.18       0
SC_29370         RG_SANTACRUZ     2177107503       1.0000     90.10      100.00     5.02       0
SC_29371         RG_SANTACRUZ     2177108502!      1.0000     95.00      100.00     12.84      0
SC_29372         RG_SANTACRUZ     2177108601       1.0000     95.00      100.00     38.03      0
SC_29373         RG_SANTACRUZ     2177109601       1.0000     95.00      100.00     30.32      0
SC_29374         RG_SANTACRUZ     2177109802       1.0000     95.00      100.00     24.85      0
SC_29375         RG_SANTACRUZ     2177109902!      1.0000     91.70      100.00     7.17       0
SC_29376         RG_SANTACRUZ     2177118001       1.0000     78.50      100.00     10.56      0
SC_29377         RG_SANTACRUZ     2177118101!      1.0000     60.30      100.00     17.63      0
SC_29378         RG_SANTACRUZ     2177118101!      1.0000     66.10      100.00     9.54       0
SC_29379         RG_SANTACRUZ     2178110301       1.0000     90.10      100.00     8.82       0
SC_29380         RG_SANTACRUZ     2178110303       1.0000     95.00      100.00     9.30       0
SC_29381         RG_SANTACRUZ     2178110403       1.0000     95.00      100.00     11.27      0
SC_29382         RG_SANTACRUZ     2177117803       1.0000     95.00      100.00     8.21       0
SC_29383         RG_SANTACRUZ     2177118801       1.0000     95.00      100.00     3.33       0
SC_29384         RG_SANTACRUZ     2177118801       1.0000     95.00      100.00     10.11      0
SC_29385         RG_SANTACRUZ     2177118801       1.0000     93.40      100.00     7.27       0
SC_29386         RG_SANTACRUZ     2177129101       1.0000     95.00      100.00     7.19       0
SC_29387         RG_SANTACRUZ     2177129101       1.0000     95.00      100.00     7.69       0
SC_29388         RG_SANTACRUZ     2177129101       1.0000     95.00      100.00     12.31      0
SC_29389         RG_SANTACRUZ     2177129101       1.0000     95.00      100.00     13.78      0
SC_29390         RG_SANTACRUZ     2177129101       1.0000     95.00      100.00     4.78       0
SC_29391         RG_SANTACRUZ     2177129101       1.0000     95.00      100.00     5.21       0
SC_29392         RG_SANTACRUZ     2177124904       1.0000     91.70      100.00     11.08      0
SC_29393         RG_SANTACRUZ     2177124904       1.0000     95.00      100.00     15.24      0
SC_29394         RG_SANTACRUZ     2177124904       1.0000     95.00      100.00     7.57       0
SC_29395         RG_SANTACRUZ     2177137207       1.0000     95.00      100.00     6.40       0
SC_29396         RG_SANTACRUZ     2177137207       1.0000     95.00      100.00     6.84       0
SC_29397         RG_SANTACRUZ     2177138202       1.0000     95.00      100.00     3.42       0
SC_29398         RG_SANTACRUZ     2177138202       1.0000     95.00      100.00     4.67       0
SC_29399         RG_SANTACRUZ     2177138205       1.0000     95.00      100.00     3.71       0
SC_29400         RG_SANTACRUZ     2177138401       1.0000     93.40      100.00     11.22      0
SC_29401         RG_SANTACRUZ     2177138501       1.0000     94.20      100.00     13.48      0
SC_29402         RG_SANTACRUZ     2177138601       1.0000     90.90      100.00     12.78      0
SC_29403         RG_SANTACRUZ     2177139701       1.0000     86.80      100.00     13.71      0
SC_29404         RG_SANTACRUZ     2177138801       1.0000     58.70      100.00     8.10       0
SC_29405         RG_SANTACRUZ     2177138904       1.0000     71.90      100.00     15.99      0
SC_29406         RG_SANTACRUZ     2177138901       1.0000     66.10      100.00     7.59       0
SC_29407         RG_SANTACRUZ     2177147003       1.0000     69.40      100.00     8.10       0
SC_29408         RG_SANTACRUZ     2177147003       1.0000     95.00      100.00     4.72       0
SC_29409         RG_SANTACRUZ     2177145101       1.0000     95.00      100.00     4.93       0
SC_29410         RG_SANTACRUZ     2177145201       1.0000     95.00      100.00     19.48      0
SC_29411         RG_SANTACRUZ     2177145201       1.0000     58.70      100.00     11.36      0
SC_29412         RG_SANTACRUZ     2177145201       1.0000     71.90      100.00     8.32       0
SC_29413         RG_SANTACRUZ     2177143801       1.0000     43.00      100.00     9.00       0
SC_29414         RG_SANTACRUZ     2177143801       1.0000     57.90      100.00     9.45       0
SC_29415         RG_SANTACRUZ     2177155201       1.0000     28.90      100.00     13.79      0
SC_29416         RG_SANTACRUZ     2177155201       1.0000     32.20      100.00     20.31      0
SC_29417         RG_SANTACRUZ     2177155201       1.0000     45.50      100.00     17.39      0
SC_29418         RG_SANTACRUZ     2177155201       1.0000     67.80      100.00     20.14      0
SC_29419         RG_SANTACRUZ     2177155401       1.0000     78.50      100.00     22.76      0
SC_29420         RG_SANTACRUZ     2177155401       1.0000     65.30      100.00     2.70       0
SC_29421         RG_SANTACRUZ     2177157701       1.0000     76.40      100.00     3.57       0
SC_29423         RG_SANTACRUZ     2177157701       1.0000     75.20      100.00     25.51      0
SC_29424         RG_SANTACRUZ     2177157701       1.0000     53.70      100.00     13.68      0
SC_29425         RG_SANTACRUZ     2177156901       1.0000     95.00      100.00     15.64      0
SC_29426         RG_SANTACRUZ     2177156901       1.0000     90.90      100.00     4.22       0
SC_29427         RG_SANTACRUZ     2177156901       1.0000     66.10      100.00     2.12       0
SC_29428         RG_SANTACRUZ     2177156901       1.0000     67.80      100.00     5.02       0
SC_29638         RG_SANTACRUZ     2177099404       1.0000     71.10      100.00     15.28      0
SC_29639         RG_SANTACRUZ     2177099403       1.0000     46.30      100.00     12.79      0
SC_29640         RG_SANTACRUZ     2177099402       1.0000     78.50      100.00     11.79      0
SC_29641         RG_SANTACRUZ     2177099602       1.0000     57.00      100.00     12.56      0
SC_29642         RG_SANTACRUZ     2177099602       1.0000     95.00      100.00     2.81       0
SC_29643         RG_SANTACRUZ     2177098803       1.0000     94.20      100.00     4.43       0
SC_29644         RG_SANTACRUZ     2177098902       1.0000     47.90      100.00     3.01       0
SC_29645         RG_SANTACRUZ     2178100001       1.0000     22.30      100.00     3.27       0
SC_29646         RG_SANTACRUZ     2178100001       1.0000     18.20      100.00     3.88       0
SC_29647         RG_SANTACRUZ     2178100001       1.0000     40.50      100.00     2.54       0
SC_29648         RG_SANTACRUZ     2178101101!      1.0000     77.70      100.00     8.25       0
SC_29649         RG_SANTACRUZ     2177108502!      1.0000     95.00      100.00     3.44       0
SC_29650         RG_SANTACRUZ     2177108602!      1.0000     81.00      100.00     5.71       0
SC_29651         RG_SANTACRUZ     2177109602!      1.0000     35.50      100.00     11.11      0
SC_29652         RG_SANTACRUZ     2177109701       1.0000     95.00      100.00     33.03      0
SC_29653         RG_SANTACRUZ     2177109803!      1.0000     95.00      100.00     26.64      0
SC_29654         RG_SANTACRUZ     2177109902!      1.0000     71.10      100.00     5.97       0
SC_29655         RG_SANTACRUZ     2177119002       1.0000     62.00      100.00     4.68       0
SC_29656         RG_SANTACRUZ     2177119001       1.0000     37.20      100.00     8.74       0
SC_29657         RG_SANTACRUZ     2178110203!      1.0000     32.20      100.00     8.45       0
SC_29658         RG_SANTACRUZ     2178110301       1.0000     92.60      100.00     6.01       0
SC_29659         RG_SANTACRUZ     2178110401       1.0000     86.80      100.00     4.03       0
SC_29660         RG_SANTACRUZ     2178110501!      1.0000     91.70      100.00     9.91       0
SC_29661         RG_SANTACRUZ     2178110501!      1.0000     93.40      100.00     12.08      0
SC_29662         RG_SANTACRUZ     2177119801       1.0000     95.00      100.00     8.01       0
SC_29663         RG_SANTACRUZ     2177119801       1.0000     95.00      100.00     14.80      0
SC_29664         RG_SANTACRUZ     2178110901       1.0000     95.00      100.00     5.60       0
SC_29665         RG_SANTACRUZ     2177129001       1.0000     95.00      100.00     4.12       0
SC_29666         RG_SANTACRUZ     2177129101       1.0000     95.00      100.00     5.37       0
SC_29667         RG_SANTACRUZ     2177129101       1.0000     95.00      100.00     5.25       0
SC_29668         RG_SANTACRUZ     2177129101       1.0000     95.00      100.00     8.07       0
SC_29669         RG_SANTACRUZ     2177129101       1.0000     95.00      100.00     11.95      0
SC_29670         RG_SANTACRUZ     2177129101       1.0000     95.00      100.00     6.24       0
SC_29671         RG_SANTACRUZ     2178123902       1.0000     94.20      100.00     3.86       0
SC_29672         RG_SANTACRUZ     2178133003       1.0000     95.00      100.00     2.32       0
SC_29673         RG_SANTACRUZ     2178133002       1.0000     91.70      100.00     3.63       0
SC_29674         RG_SANTACRUZ     2177138202       1.0000     95.00      100.00     7.84       0
SC_29675         RG_SANTACRUZ     2177138202       1.0000     95.00      100.00     6.23       0
SC_29676         RG_SANTACRUZ     2177139202       1.0000     95.00      100.00     1.90       0
SC_29677         RG_SANTACRUZ     2177139203       1.0000     95.00      100.00     2.64       0
SC_29678         RG_SANTACRUZ     2177139305       1.0000     89.30      100.00     2.85       0
SC_29679         RG_SANTACRUZ     2177139401       1.0000     91.70      100.00     7.14       0
SC_29680         RG_SANTACRUZ     2177139502       1.0000     90.90      100.00     7.49       0
SC_29681         RG_SANTACRUZ     2177139511       1.0000     95.00      100.00     1.64       0
SC_29682         RG_SANTACRUZ     2177139705       1.0000     95.00      100.00     3.44       0
SC_29683         RG_SANTACRUZ     2177138801       1.0000     93.40      100.00     3.86       0
SC_29684         RG_SANTACRUZ     2177138801       1.0000     73.60      100.00     11.27      0
SC_29685         RG_SANTACRUZ     2178130901       1.0000     63.60      100.00     18.53      0
SC_29686         RG_SANTACRUZ     2178130901       1.0000     72.70      100.00     35.53      0
SC_29687         RG_SANTACRUZ     2177147003       1.0000     90.90      100.00     19.80      0
SC_29688         RG_SANTACRUZ     2178142203       1.0000     63.60      100.00     15.31      0
SC_29689         RG_SANTACRUZ     2178143201       1.0000     79.30      100.00     18.86      0
SC_29690         RG_SANTACRUZ     2178143303       1.0000     43.00      100.00     10.92      0
SC_29691         RG_SANTACRUZ     2178143402       1.0000     57.00      100.00     8.61       0
SC_29692         RG_SANTACRUZ     2178143402       1.0000     81.00      100.00     9.19       0
SC_29693         RG_SANTACRUZ     2178143402       1.0000     80.20      100.00     8.33       0
SC_29694         RG_SANTACRUZ     2177155201       1.0000     62.00      100.00     8.25       0
SC_29695         RG_SANTACRUZ     2177155201       1.0000     63.60      100.00     15.64      0
SC_29696         RG_SANTACRUZ     2177155201       1.0000     39.70      100.00     22.56      0
SC_29697         RG_SANTACRUZ     2177155201       1.0000     53.70      100.00     17.07      0
SC_29698         RG_SANTACRUZ     2177155401       1.0000     77.70      100.00     10.77      0
SC_29699         RG_SANTACRUZ     2177157701       1.0000     72.70      100.00     2.67       0
SC_29700         RG_SANTACRUZ     2177157701       1.0000     91.80      100.00     3.02       0
SC_29701         RG_SANTACRUZ     2177157701       1.0000     79.30      100.00     16.80      0
SC_29702         RG_SANTACRUZ     2177157701       1.0000     59.50      100.00     14.47      0
SC_29703         RG_SANTACRUZ     2177157701       1.0000     52.90      100.00     5.00       0
SC_29704         RG_SANTACRUZ     2177156901       1.0000     76.90      100.00     13.26      0
SC_29705         RG_SANTACRUZ     2177156901       1.0000     71.10      100.00     16.68      0
SC_29706         RG_SANTACRUZ     2177156901       1.0000     48.80      100.00     10.01      0
SC_29707         RG_SANTACRUZ     2177156901       1.0000     52.90      100.00     6.34       0
SC_29917         RG_SANTACRUZ     2178090402       1.0000     80.20      100.00     8.46       0
SC_29918         RG_SANTACRUZ     2178091403       1.0000     29.80      100.00     10.51      0
SC_29919         RG_SANTACRUZ     2178090602       1.0000     52.10      100.00     12.83      0
SC_29920         RG_SANTACRUZ     2178090603       1.0000     95.00      100.00     5.26       0
SC_29921         RG_SANTACRUZ     2178090603       1.0000     95.00      100.00     1.70       0
SC_29922         RG_SANTACRUZ     2178100001       1.0000     95.00      100.00     2.32       0
SC_29923         RG_SANTACRUZ     2178100001       1.0000     77.70      100.00     10.63      0
SC_29924         RG_SANTACRUZ     2178101101!      1.0000     28.10      100.00     6.40       0
SC_29925         RG_SANTACRUZ     2178101101!      1.0000     43.00      100.00     3.61       0
SC_29926         RG_SANTACRUZ     2178101101!      1.0000     47.10      100.00     4.87       0
SC_29927         RG_SANTACRUZ     2177108602!      1.0000     95.00      100.00     5.96       0
SC_29928         RG_SANTACRUZ     2177109602!      1.0000     89.30      100.00     5.07       0
SC_29929         RG_SANTACRUZ     2178100701!      1.0000     70.00      100.00     4.75       0
SC_29930         RG_SANTACRUZ     2178100705       1.0000     73.60      100.00     7.23       0
SC_29931         RG_SANTACRUZ     2178100804!      1.0000     9.10       100.00     8.57       0
SC_29932         RG_SANTACRUZ     2178100902!      1.0000     33.10      100.00     4.45       0
SC_29933         RG_SANTACRUZ     2178110001!      1.0000     30.60      100.00     2.49       0
SC_29934         RG_SANTACRUZ     2178110103!      1.0000     16.50      100.00     8.01       0
SC_29935         RG_SANTACRUZ     2178110204!      1.0000     41.30      100.00     6.62       0
SC_29936         RG_SANTACRUZ     2178110301       1.0000     49.60      100.00     5.28       0
SC_29937         RG_SANTACRUZ     2178110402!      1.0000     49.60      100.00     3.64       0
SC_29938         RG_SANTACRUZ     2178110501!      1.0000     83.50      100.00     9.06       0
SC_29939         RG_SANTACRUZ     2178110501!      1.0000     87.60      100.00     15.09      0
SC_29940         RG_SANTACRUZ     2177119801       1.0000     94.20      100.00     10.70      0
SC_29941         RG_SANTACRUZ     2178110801       1.0000     95.00      100.00     10.39      0
SC_29942         RG_SANTACRUZ     2178110903       1.0000     82.60      100.00     10.25      0
SC_29943         RG_SANTACRUZ     2178110902       1.0000     70.20      100.00     7.76       0
SC_29944         RG_SANTACRUZ     2177129101       1.0000     91.70      100.00     6.41       0
SC_29945         RG_SANTACRUZ     2177129101       1.0000     95.00      100.00     4.52       0
SC_29946         RG_SANTACRUZ     2177129101       1.0000     95.00      100.00     8.58       0
SC_29947         RG_SANTACRUZ     2177129101       1.0000     95.00      100.00     25.44      0
SC_29948         RG_SANTACRUZ     2177129101       1.0000     95.00      100.00     32.78      0
SC_29949         RG_SANTACRUZ     2178123903       1.0000     91.70      100.00     15.28      0
SC_29950         RG_SANTACRUZ     2178123901       1.0000     95.00      100.00     11.66      0
SC_29951         RG_SANTACRUZ     2178133002       1.0000     95.00      100.00     3.55       0
SC_29952         RG_SANTACRUZ     2178132001       1.0000     91.70      100.00     5.29       0
SC_29953         RG_SANTACRUZ     2178132103       1.0000     95.00      100.00     8.86       0
SC_29954         RG_SANTACRUZ     2178132202       1.0000     95.00      100.00     4.02       0
SC_29955         RG_SANTACRUZ     2178131201       1.0000     95.00      100.00     2.64       0
SC_29956         RG_SANTACRUZ     2178131301       1.0000     86.80      100.00     6.36       0
SC_29957         RG_SANTACRUZ     2178130404       1.0000     92.60      100.00     4.04       0
SC_29958         RG_SANTACRUZ     2178130501       1.0000     81.00      100.00     2.05       0
SC_29959         RG_SANTACRUZ     2178130606       1.0000     95.00      100.00     2.11       0
SC_29960         RG_SANTACRUZ     2178130706       1.0000     95.00      100.00     2.19       0
SC_29961         RG_SANTACRUZ     2178130802       1.0000     95.00      100.00     1.39       0
SC_29962         RG_SANTACRUZ     2178130901       1.0000     95.00      100.00     4.93       0
SC_29963         RG_SANTACRUZ     2178130901       1.0000     62.80      100.00     6.80       0
SC_29964         RG_SANTACRUZ     2178131901       1.0000     60.30      100.00     7.75       0
SC_29965         RG_SANTACRUZ     2178142102       1.0000     84.30      100.00     12.89      0
SC_29966         RG_SANTACRUZ     2178142204       1.0000     52.90      100.00     18.06      0
SC_29967         RG_SANTACRUZ     2178143302       1.0000     84.30      100.00     20.58      0
SC_29968         RG_SANTACRUZ     2178143401       1.0000     47.90      100.00     6.60       0
SC_29969         RG_SANTACRUZ     2178143402       1.0000     71.10      100.00     4.25       0
SC_29970         RG_SANTACRUZ     2178143402       1.0000     51.20      100.00     5.72       0
SC_29971         RG_SANTACRUZ     2178143402       1.0000     81.80      100.00     8.97       0
SC_29972         RG_SANTACRUZ     2178143402       1.0000     61.20      100.00     24.54      0
SC_29973         RG_SANTACRUZ     2177155201       1.0000     67.80      100.00     27.42      0
SC_29974         RG_SANTACRUZ     2177155201       1.0000     44.60      100.00     28.79      0
SC_29975         RG_SANTACRUZ     2177155201       1.0000     62.00      100.00     16.40      0
SC_29976         RG_SANTACRUZ     2177155401       1.0000     59.50      100.00     7.02       0
SC_29977         RG_SANTACRUZ     2177157701       1.0000     76.90      100.00     5.76       0
SC_29978         RG_SANTACRUZ     2177157701       1.0000     77.30      100.00     5.81       0
SC_29979         RG_SANTACRUZ     2177157701       1.0000     91.70      100.00     15.62      0
SC_29980         RG_SANTACRUZ     2177157701       1.0000     86.00      100.00     16.97      0
SC_29981         RG_SANTACRUZ     2177157701       1.0000     90.90      100.00     16.21      0
SC_29982         RG_SANTACRUZ     2177156901       1.0000     95.00      100.00     14.73      0
SC_29983         RG_SANTACRUZ     2177156901       1.0000     94.20      100.00     19.75      0
SC_29984         RG_SANTACRUZ     2177156901       1.0000     95.00      100.00     15.05      0
SC_30197         RG_SANTACRUZ     2178091502       1.0000     25.60      100.00     24.54      0
SC_30198         RG_SANTACRUZ     2178091603       1.0000     51.20      100.00     14.20      0
SC_30204         RG_SANTACRUZ     2178101101!      1.0000     14.90      100.00     10.32      0
SC_30205         RG_SANTACRUZ     2178102201!      1.0000     46.30      100.00     6.39       0
SC_30206         RG_SANTACRUZ     2178102201!      1.0000     40.50      100.00     4.83       0
SC_30207         RG_SANTACRUZ     2178100705       1.0000     31.40      100.00     4.26       0
SC_30208         RG_SANTACRUZ     2178100705       1.0000     41.80      100.00     2.68       0
SC_30209         RG_SANTACRUZ     2178101701!      1.0000     24.00      100.00     2.18       0
SC_30210         RG_SANTACRUZ     2178101802!      1.0000     51.20      100.00     2.01       0
SC_30211         RG_SANTACRUZ     2178101804       1.0000     12.40      100.00     4.41       0
SC_30212         RG_SANTACRUZ     2178112002!      1.0000     35.50      100.00     9.66       0
SC_30213         RG_SANTACRUZ     2178111103!      1.0000     27.30      100.00     14.21      0
SC_30214         RG_SANTACRUZ     2178111201!      1.0000     28.90      100.00     6.32       0
SC_30215         RG_SANTACRUZ     2178111302       1.0000     18.20      100.00     4.36       0
SC_30216         RG_SANTACRUZ     2178112401       1.0000     56.20      100.00     5.81       0
SC_30217         RG_SANTACRUZ     2178111503       1.0000     81.80      100.00     11.41      0
SC_30218         RG_SANTACRUZ     2178111504!      1.0000     95.00      100.00     10.76      0
SC_30219         RG_SANTACRUZ     2177119801       1.0000     41.30      100.00     11.77      0
SC_30220         RG_SANTACRUZ     2178110801       1.0000     78.50      100.00     16.67      0
SC_30221         RG_SANTACRUZ     2178110903       1.0000     92.60      100.00     7.01       0
SC_30222         RG_SANTACRUZ     2178110902       1.0000     30.60      100.00     4.52       0
SC_30223         RG_SANTACRUZ     2177129101       1.0000     13.20      100.00     3.84       0
SC_30224         RG_SANTACRUZ     2177129101       1.0000     27.30      100.00     10.57      0
SC_30225         RG_SANTACRUZ     2177129101       1.0000     82.60      100.00     10.54      0
SC_30226         RG_SANTACRUZ     2178124201!      1.0000     95.00      100.00     13.72      0
SC_30227         RG_SANTACRUZ     2178124201!      1.0000     95.00      100.00     25.42      0
SC_30228         RG_SANTACRUZ     2178124901       1.0000     95.00      100.00     12.40      0
SC_30229         RG_SANTACRUZ     2178123903       1.0000     95.00      100.00     15.19      0
SC_30230         RG_SANTACRUZ     2178123901       1.0000     95.00      100.00     16.65      0
SC_30231         RG_SANTACRUZ     2178133002       1.0000     95.00      100.00     4.05       0
SC_30232         RG_SANTACRUZ     2178132104       1.0000     95.00      100.00     8.32       0
SC_30233         RG_SANTACRUZ     2178132101       1.0000     95.00      100.00     8.85       0
SC_30234         RG_SANTACRUZ     2178131202       1.0000     87.60      100.00     6.73       0
SC_30235         RG_SANTACRUZ     2178131303       1.0000     90.10      100.00     2.82       0
SC_30236         RG_SANTACRUZ     2178131403       1.0000     92.60      100.00     3.34       0
SC_30237         RG_SANTACRUZ     2178131606       1.0000     95.00      100.00     2.09       0
SC_30238         RG_SANTACRUZ     2178131604       1.0000     84.30      100.00     2.61       0
SC_30239         RG_SANTACRUZ     2178130711       1.0000     95.00      100.00     2.20       0
SC_30240         RG_SANTACRUZ     2178131803       1.0000     95.00      100.00     2.97       0
SC_30241         RG_SANTACRUZ     2178131806       1.0000     95.00      100.00     2.59       0
SC_30242         RG_SANTACRUZ     2178131901       1.0000     95.00      100.00     3.72       0
SC_30243         RG_SANTACRUZ     2178142101       1.0000     95.00      100.00     8.06       0
SC_30244         RG_SANTACRUZ     2178142102       1.0000     95.00      100.00     13.00      0
SC_30245         RG_SANTACRUZ     2178143201       1.0000     95.00      100.00     8.30       0
SC_30246         RG_SANTACRUZ     2178143303       1.0000     94.20      100.00     5.62       0
SC_30247         RG_SANTACRUZ     2178143402       1.0000     86.00      100.00     11.80      0
SC_30248         RG_SANTACRUZ     2178143402       1.0000     41.30      100.00     7.17       0
SC_30249         RG_SANTACRUZ     2178143402       1.0000     54.50      100.00     5.07       0
SC_30250         RG_SANTACRUZ     2178143402       1.0000     89.30      100.00     8.75       0
SC_30251         RG_SANTACRUZ     2178143402       1.0000     82.60      100.00     18.20      0
SC_30252         RG_SANTACRUZ     2178143402       1.0000     28.10      100.00     22.26      0
SC_30253         RG_SANTACRUZ     2177155201       1.0000     35.50      100.00     18.94      0
SC_30254         RG_SANTACRUZ     2177155201       1.0000     79.30      100.00     18.53      0
SC_30255         RG_SANTACRUZ     2177155401       1.0000     82.60      100.00     13.20      0
SC_30256         RG_SANTACRUZ     2177157701       1.0000     82.60      100.00     3.46       0
SC_30257         RG_SANTACRUZ     2177157701       1.0000     93.60      100.00     10.65      0
SC_30258         RG_SANTACRUZ     2177157701       1.0000     94.20      100.00     19.74      0
SC_30259         RG_SANTACRUZ     2177157701       1.0000     57.90      100.00     23.39      0
SC_30260         RG_SANTACRUZ     2177157701       1.0000     92.60      100.00     9.39       0
SC_30261         RG_SANTACRUZ     2177157701       1.0000     92.60      100.00     11.26      0
SC_30262         RG_SANTACRUZ     2177156901       1.0000     90.90      100.00     12.98      0
SC_30488         RG_SANTACRUZ     2178101701!      1.0000     12.70      100.00     1.87       0
SC_30489         RG_SANTACRUZ     2178101803!      1.0000     5.00       100.00     1.15       0
SC_30490         RG_SANTACRUZ     2178102801       1.0000     16.50      100.00     5.16       0
SC_30491         RG_SANTACRUZ     2178102903       1.0000     16.50      100.00     3.21       0
SC_30492         RG_SANTACRUZ     2178112003       1.0000     87.60      100.00     29.76      0
SC_30493         RG_SANTACRUZ     2178112104!      1.0000     68.60      100.00     23.57      0
SC_30494         RG_SANTACRUZ     2178112105       1.0000     59.50      100.00     10.31      0
SC_30495         RG_SANTACRUZ     2178112401       1.0000     42.10      100.00     4.95       0
SC_30496         RG_SANTACRUZ     2178112402!      1.0000     19.80      100.00     2.58       0
SC_30497         RG_SANTACRUZ     2178112502!      1.0000     90.90      100.00     5.03       0
SC_30498         RG_SANTACRUZ     2178112503       1.0000     95.00      100.00     8.29       0
SC_30499         RG_SANTACRUZ     2178113501!      1.0000     95.00      100.00     15.58      0
SC_30500         RG_SANTACRUZ     2178110903       1.0000     95.00      100.00     10.94      0
SC_30501         RG_SANTACRUZ     2178110903       1.0000     95.00      100.00     6.47       0
SC_30502         RG_SANTACRUZ     2178110902       1.0000     9.10       100.00     7.16       0
SC_30503         RG_SANTACRUZ     2178124202       1.0000     5.00       100.00     6.70       0
SC_30504         RG_SANTACRUZ     2178124201!      1.0000     5.00       100.00     5.70       0
SC_30506         RG_SANTACRUZ     2178124201!      1.0000     95.00      100.00     8.45       0
SC_30507         RG_SANTACRUZ     2178124201!      1.0000     88.40      100.00     8.62       0
SC_30508         RG_SANTACRUZ     2178124902       1.0000     95.00      100.00     14.07      0
SC_30509         RG_SANTACRUZ     2178124901       1.0000     72.70      100.00     14.38      0
SC_30510         RG_SANTACRUZ     2178123903       1.0000     64.50      100.00     6.56       0
SC_30511         RG_SANTACRUZ     2178133003       1.0000     87.60      100.00     5.93       0
SC_30512         RG_SANTACRUZ     2178132001       1.0000     90.00      100.00     9.42       0
SC_30513         RG_SANTACRUZ     2178132103       1.0000     93.40      100.00     8.80       0
SC_30514         RG_SANTACRUZ     2178132202       1.0000     95.00      100.00     7.13       0
SC_30515         RG_SANTACRUZ     2178131201       1.0000     90.10      100.00     1.32       0
SC_30516         RG_SANTACRUZ     2178132405       1.0000     80.20      100.00     1.40       0
SC_30517         RG_SANTACRUZ     2178132501       1.0000     95.00      100.00     1.42       0
SC_30518         RG_SANTACRUZ     2178132602       1.0000     91.70      100.00     1.98       0
SC_30519         RG_SANTACRUZ     2178132605       1.0000     81.00      100.00     2.01       0
SC_30520         RG_SANTACRUZ     2178132901       1.0000     95.00      100.00     3.27       0
SC_30521         RG_SANTACRUZ     2178132902       1.0000     95.00      100.00     3.11       0
SC_30522         RG_SANTACRUZ     2178142001       1.0000     93.40      100.00     5.16       0
SC_30523         RG_SANTACRUZ     2178142101       1.0000     95.00      100.00     1.76       0
SC_30524         RG_SANTACRUZ     2178142203       1.0000     95.00      100.00     2.60       0
SC_30525         RG_SANTACRUZ     2178143301       1.0000     95.00      100.00     2.29       0
SC_30526         RG_SANTACRUZ     2178143401       1.0000     95.00      100.00     8.47       0
SC_30527         RG_SANTACRUZ     2178143402       1.0000     82.60      100.00     17.33      0
SC_30528         RG_SANTACRUZ     2178143402       1.0000     66.10      100.00     19.91      0
SC_30529         RG_SANTACRUZ     2178143402       1.0000     84.30      100.00     28.94      0
SC_30530         RG_SANTACRUZ     2178143402       1.0000     59.50      100.00     20.09      0
SC_30531         RG_SANTACRUZ     2178143402       1.0000     31.40      100.00     18.87      0
SC_30532         RG_SANTACRUZ     2178143402       1.0000     44.60      100.00     12.42      0
SC_30533         RG_SANTACRUZ     2178148801       1.0000     28.90      100.00     30.08      0
SC_30534         RG_SANTACRUZ     2177155201       1.0000     69.40      100.00     9.40       0
SC_30535         RG_SANTACRUZ     2177157701       1.0000     86.80      100.00     6.92       0
SC_30536         RG_SANTACRUZ     2177157701       1.0000     86.00      100.00     3.54       0
SC_30537         RG_SANTACRUZ     2177157701       1.0000     95.00      100.00     17.08      0
SC_30538         RG_SANTACRUZ     2177157701       1.0000     65.30      100.00     17.69      0
SC_30539         RG_SANTACRUZ     2177157701       1.0000     83.50      100.00     7.30       0
SC_30540         RG_SANTACRUZ     2177157701       1.0000     43.00      100.00     14.77      0
SC_30541         RG_SANTACRUZ     2177157701       1.0000     74.40      100.00     26.30      0
SC_30542         RG_SANTACRUZ     2177156901       1.0000     95.00      100.00     12.01      0
SC_30773         RG_SANTACRUZ     2178112004       1.0000     93.40      100.00     46.54      0
SC_30774         RG_SANTACRUZ     2178113103       1.0000     95.00      100.00     26.77      0
SC_30775         RG_SANTACRUZ     2178113103       1.0000     33.90      100.00     7.97       0
SC_30776         RG_SANTACRUZ     2178113103       1.0000     77.70      100.00     7.07       0
SC_30779         RG_SANTACRUZ     2178113504!      1.0000     95.00      100.00     7.04       0
SC_30780         RG_SANTACRUZ     2178113505       1.0000     64.50      100.00     8.85       0
SC_30781         RG_SANTACRUZ     2178114601!      1.0000     67.80      100.00     13.69      0
SC_30782         RG_SANTACRUZ     2178125001!      1.0000     95.00      100.00     8.65       0
SC_30783         RG_SANTACRUZ     2178125001!      1.0000     62.00      100.00     9.52       0
SC_30787         RG_SANTACRUZ     2178124201!      1.0000     87.60      100.00     4.88       0
SC_30788         RG_SANTACRUZ     2178124201!      1.0000     87.60      100.00     11.39      0
SC_30789         RG_SANTACRUZ     2178125801       1.0000     83.50      100.00     13.99      0
SC_30790         RG_SANTACRUZ     2178124801       1.0000     84.30      100.00     6.68       0
SC_30791         RG_SANTACRUZ     2178124901       1.0000     82.60      100.00     3.83       0
SC_30792         RG_SANTACRUZ     2178123902       1.0000     95.00      100.00     6.66       0
SC_30793         RG_SANTACRUZ     2178133003       1.0000     95.00      100.00     9.10       0
SC_30794         RG_SANTACRUZ     2178132104       1.0000     95.00      100.00     12.04      0
SC_30795         RG_SANTACRUZ     2178132101       1.0000     95.00      100.00     5.69       0
SC_30796         RG_SANTACRUZ     2178133404       1.0000     95.00      100.00     2.59       0
SC_30797         RG_SANTACRUZ     2178133403       1.0000     95.00      100.00     1.04       0
SC_30798         RG_SANTACRUZ     2178133401       1.0000     95.00      100.00     2.42       0
SC_30799         RG_SANTACRUZ     2178133601       1.0000     84.30      100.00     2.55       0
SC_30800         RG_SANTACRUZ     2178133702       1.0000     95.00      100.00     1.99       0
SC_30801         RG_SANTACRUZ     2178134801       1.0000     95.00      100.00     2.26       0
SC_30802         RG_SANTACRUZ     2178133901       1.0000     95.00      100.00     2.35       0
SC_30803         RG_SANTACRUZ     2178143004       1.0000     95.00      100.00     3.26       0
SC_30804         RG_SANTACRUZ     2178142104       1.0000     95.00      100.00     4.09       0
SC_30805         RG_SANTACRUZ     2178142204       1.0000     95.00      100.00     1.93       0
SC_30806         RG_SANTACRUZ     2178143302       1.0000     95.00      100.00     5.96       0
SC_30807         RG_SANTACRUZ     2178143402       1.0000     95.00      100.00     16.16      0
SC_30808         RG_SANTACRUZ     2178143402       1.0000     95.00      100.00     13.06      0
SC_30809         RG_SANTACRUZ     2178143402       1.0000     92.60      100.00     25.16      0
SC_30810         RG_SANTACRUZ     2178143402       1.0000     95.00      100.00     19.60      0
SC_30811         RG_SANTACRUZ     2178143402       1.0000     70.20      100.00     30.33      0
SC_30812         RG_SANTACRUZ     2178143402       1.0000     62.80      100.00     23.17      0
SC_30813         RG_SANTACRUZ     2178148801       1.0000     48.80      100.00     27.41      0
SC_30814         RG_SANTACRUZ     2178148801       1.0000     31.40      100.00     48.13      0
SC_30815         RG_SANTACRUZ     2178148801       1.0000     41.30      100.00     44.53      0
SC_30816         RG_SANTACRUZ     2178148801       1.0000     52.10      100.00     20.02      0
SC_30817         RG_SANTACRUZ     2177157701       1.0000     68.60      100.00     17.27      0
SC_30818         RG_SANTACRUZ     2177157701       1.0000     95.00      100.00     18.03      0
SC_30819         RG_SANTACRUZ     2177157701       1.0000     94.20      100.00     11.98      0
SC_30820         RG_SANTACRUZ     2177157701       1.0000     95.00      100.00     5.64       0
SC_30821         RG_SANTACRUZ     2177157701       1.0000     95.00      100.00     22.14      0
SC_30822         RG_SANTACRUZ     2177157701       1.0000     88.40      100.00     23.78      0
SC_31061         RG_SANTACRUZ     2178114602       1.0000     62.80      100.00     5.72       0
SC_31063         RG_SANTACRUZ     2178115901       1.0000     77.70      100.00     5.41       0
SC_31064         RG_SANTACRUZ     2178115901       1.0000     95.00      100.00     8.17       0
SC_31065         RG_SANTACRUZ     2178125001!      1.0000     95.00      100.00     10.41      0
SC_31066         RG_SANTACRUZ     2178124202       1.0000     93.40      100.00     4.47       0
SC_31069         RG_SANTACRUZ     2178124201!      1.0000     95.00      100.00     13.71      0
SC_31070         RG_SANTACRUZ     2178124201!      1.0000     49.60      100.00     8.75       0
SC_31071         RG_SANTACRUZ     2178125801       1.0000     59.50      100.00     13.94      0
SC_31072         RG_SANTACRUZ     2178125801       1.0000     93.40      100.00     5.21       0
SC_31073         RG_SANTACRUZ     2178124802       1.0000     95.00      100.00     5.41       0
SC_31074         RG_SANTACRUZ     2178124902       1.0000     85.10      100.00     6.37       0
SC_31075         RG_SANTACRUZ     2178123902       1.0000     82.70      100.00     25.39      0
SC_31076         RG_SANTACRUZ     2178133001       1.0000     90.10      100.00     29.02      0
SC_31077         RG_SANTACRUZ     2178134402       1.0000     85.10      100.00     19.99      0
SC_31078         RG_SANTACRUZ     2178134402       1.0000     95.00      100.00     5.55       0
SC_31079         RG_SANTACRUZ     2178134402       1.0000     86.00      100.00     3.28       0
SC_31080         RG_SANTACRUZ     2178134402       1.0000     95.00      100.00     1.42       0
SC_31081         RG_SANTACRUZ     2178133707       1.0000     95.00      100.00     3.56       0
SC_31082         RG_SANTACRUZ     2178133707       1.0000     95.00      100.00     3.29       0
SC_31083         RG_SANTACRUZ     2178134806       1.0000     95.00      100.00     1.57       0
SC_31084         RG_SANTACRUZ     2178133901       1.0000     95.00      100.00     2.16       0
SC_31085         RG_SANTACRUZ     2178144001       1.0000     95.00      100.00     3.42       0
SC_31086         RG_SANTACRUZ     2178144102       1.0000     95.00      100.00     3.91       0
SC_31087         RG_SANTACRUZ     2178145102       1.0000     95.00      100.00     2.00       0
SC_31088         RG_SANTACRUZ     2178143303       1.0000     95.00      100.00     5.08       0
SC_31089         RG_SANTACRUZ     2178143402       1.0000     86.00      100.00     13.10      0
SC_31090         RG_SANTACRUZ     2178143402       1.0000     92.60      100.00     7.51       0
SC_31091         RG_SANTACRUZ     2178143402       1.0000     42.10      100.00     15.28      0
SC_31092         RG_SANTACRUZ     2178143402       1.0000     95.00      100.00     18.20      0
SC_31093         RG_SANTACRUZ     2178148801       1.0000     94.20      100.00     18.77      0
SC_31094         RG_SANTACRUZ     2178148801       1.0000     95.00      100.00     14.03      0
SC_31095         RG_SANTACRUZ     2178148801       1.0000     72.70      100.00     23.04      0
SC_31096         RG_SANTACRUZ     2178148801       1.0000     72.70      100.00     35.80      0
SC_31097         RG_SANTACRUZ     2178148801       1.0000     55.40      100.00     46.65      0
SC_31098         RG_SANTACRUZ     2178148801       1.0000     49.60      100.00     21.66      0
SC_31099         RG_SANTACRUZ     2178148801       1.0000     55.40      100.00     37.68      0
SC_31100         RG_SANTACRUZ     2177157701       1.0000     81.80      100.00     29.69      0
SC_31101         RG_SANTACRUZ     2177157701       1.0000     66.10      100.00     9.91       0
SC_31102         RG_SANTACRUZ     2177157701       1.0000     68.60      100.00     20.19      0
SC_31103         RG_SANTACRUZ     2177157701       1.0000     73.60      100.00     23.25      0
SC_31104         RG_SANTACRUZ     2177157701       1.0000     90.90      100.00     24.65      0
SC_31351         RG_SANTACRUZ     2178124201!      1.0000     95.00      100.00     15.93      0
SC_31352         RG_SANTACRUZ     2178125801       1.0000     86.80      100.00     11.49      0
SC_31353         RG_SANTACRUZ     2178125801       1.0000     94.20      100.00     5.51       0
SC_31354         RG_SANTACRUZ     2178125801       1.0000     95.00      100.00     5.40       0
SC_31355         RG_SANTACRUZ     2178125801       1.0000     95.00      100.00     4.10       0
SC_31356         RG_SANTACRUZ     2178125901       1.0000     93.40      100.00     7.63       0
SC_31357         RG_SANTACRUZ     2178125901       1.0000     90.90      100.00     25.35      0
SC_31358         RG_SANTACRUZ     2178125901       1.0000     91.70      100.00     17.11      0
SC_31359         RG_SANTACRUZ     2178135401       1.0000     95.00      100.00     33.87      0
SC_31360         RG_SANTACRUZ     2178135401       1.0000     95.00      100.00     13.46      0
SC_31361         RG_SANTACRUZ     2178135404       1.0000     95.00      100.00     5.04       0
SC_31362         RG_SANTACRUZ     2178135403       1.0000     95.00      100.00     4.54       0
SC_31363         RG_SANTACRUZ     2178136701       1.0000     95.00      100.00     2.79       0
SC_31364         RG_SANTACRUZ     2178136701       1.0000     95.00      100.00     1.59       0
SC_31365         RG_SANTACRUZ     2178135802       1.0000     95.00      100.00     1.84       0
SC_31366         RG_SANTACRUZ     2178135802       1.0000     95.00      100.00     2.27       0
SC_31367         RG_SANTACRUZ     2178144106       1.0000     95.00      100.00     2.52       0
SC_31368         RG_SANTACRUZ     2178145105       1.0000     95.00      100.00     2.38       0
SC_31369         RG_SANTACRUZ     2178146101       1.0000     95.00      100.00     2.61       0
SC_31370         RG_SANTACRUZ     2178146202       1.0000     66.10      100.00     8.52       0
SC_31371         RG_SANTACRUZ     2178143402       1.0000     5.00       100.00     8.32       0
SC_31372         RG_SANTACRUZ     2178143402       1.0000     79.30      100.00     9.36       0
SC_31373         RG_SANTACRUZ     2178143402       1.0000     22.30      100.00     13.57      0
SC_31374         RG_SANTACRUZ     2178148701       1.0000     14.90      100.00     19.35      0
SC_31375         RG_SANTACRUZ     2178148801       1.0000     47.90      100.00     10.12      0
SC_31376         RG_SANTACRUZ     2178148801       1.0000     45.50      100.00     5.69       0
SC_31377         RG_SANTACRUZ     2178148801       1.0000     30.60      100.00     15.34      0
SC_31378         RG_SANTACRUZ     2178148801       1.0000     43.00      100.00     16.84      0
SC_31379         RG_SANTACRUZ     2178148801       1.0000     76.90      100.00     40.01      0
SC_31380         RG_SANTACRUZ     2178148801       1.0000     62.80      100.00     41.69      0
SC_31381         RG_SANTACRUZ     2178148801       1.0000     79.30      100.00     36.98      0
SC_31382         RG_SANTACRUZ     2178148801       1.0000     32.70      100.00     37.39      0
SC_31383         RG_SANTACRUZ     2177157701       1.0000     57.90      100.00     10.68      0
SC_31384         RG_SANTACRUZ     2177157701       1.0000     60.30      100.00     14.94      0
SC_31385         RG_SANTACRUZ     2177157701       1.0000     86.80      100.00     15.68      0
SC_31386         RG_SANTACRUZ     2177157701       1.0000     43.00      100.00     17.50      0
SC_31631         RG_SANTACRUZ     2178125103       1.0000     95.00      100.00     27.03      0
SC_31632         RG_SANTACRUZ     2178124201!      1.0000     95.00      100.00     14.69      0
SC_31633         RG_SANTACRUZ     2178125801       1.0000     95.00      100.00     12.67      0
SC_31634         RG_SANTACRUZ     2178125801       1.0000     95.00      100.00     7.41       0
SC_31635         RG_SANTACRUZ     2178125801       1.0000     90.10      100.00     4.92       0
SC_31636         RG_SANTACRUZ     2178126901       1.0000     90.10      100.00     2.91       0
SC_31637         RG_SANTACRUZ     2178126901       1.0000     95.00      100.00     1.83       0
SC_31638         RG_SANTACRUZ     2178127901       1.0000     92.70      100.00     7.56       0
SC_31639         RG_SANTACRUZ     2178138101       1.0000     91.70      100.00     10.14      0
SC_31640         RG_SANTACRUZ     2178138101       1.0000     95.00      100.00     10.79      0
SC_31641         RG_SANTACRUZ     2178136402       1.0000     95.00      100.00     2.53       0
SC_31642         RG_SANTACRUZ     2178136402       1.0000     95.00      100.00     3.47       0
SC_31643         RG_SANTACRUZ     2178136501       1.0000     95.00      100.00     4.29       0
SC_31644         RG_SANTACRUZ     2178137601       1.0000     95.00      100.00     4.02       0
SC_31645         RG_SANTACRUZ     2178136701       1.0000     95.00      100.00     9.81       0
SC_31646         RG_SANTACRUZ     2178136801       1.0000     95.00      100.00     5.46       0
SC_31647         RG_SANTACRUZ     2178136801       1.0000     95.00      100.00     22.17      0
SC_31648         RG_SANTACRUZ     2178147001       1.0000     89.30      100.00     30.31      0
SC_31649         RG_SANTACRUZ     2178146201       1.0000     95.00      100.00     4.05       0
SC_31650         RG_SANTACRUZ     2178146203       1.0000     95.00      100.00     7.80       0
SC_31651         RG_SANTACRUZ     2178146208       1.0000     92.60      100.00     12.57      0
SC_31652         RG_SANTACRUZ     2178147302       1.0000     74.40      100.00     14.63      0
SC_31653         RG_SANTACRUZ     2178148501       1.0000     77.70      100.00     10.34      0
SC_31654         RG_SANTACRUZ     2178148501       1.0000     24.00      100.00     19.93      0
SC_31655         RG_SANTACRUZ     2178148701       1.0000     66.10      100.00     20.69      0
SC_31656         RG_SANTACRUZ     2178148801       1.0000     37.20      100.00     12.75      0
SC_31657         RG_SANTACRUZ     2178148801       1.0000     5.00       100.00     7.16       0
SC_31658         RG_SANTACRUZ     2178148801       1.0000     5.00       100.00     14.39      0
SC_31659         RG_SANTACRUZ     2178148801       1.0000     12.40      100.00     26.38      0
SC_31660         RG_SANTACRUZ     2178148801       1.0000     73.60      100.00     20.85      0
SC_31661         RG_SANTACRUZ     2178148801       1.0000     19.80      100.00     19.66      0
SC_31662         RG_SANTACRUZ     2178148801       1.0000     36.40      100.00     25.22      0
SC_31663         RG_SANTACRUZ     2178148801       1.0000     40.00      100.00     18.54      0
SC_31666         RG_SANTACRUZ     2177157701       1.0000     68.60      100.00     18.78      0
SC_31667         RG_SANTACRUZ     2177157701       1.0000     71.10      100.00     16.64      0
SC_31912         RG_SANTACRUZ     2178125103       1.0000     95.00      100.00     22.43      0
SC_31913         RG_SANTACRUZ     2178125103       1.0000     95.00      100.00     14.79      0
SC_31914         RG_SANTACRUZ     2178125801       1.0000     95.00      100.00     10.92      0
SC_31915         RG_SANTACRUZ     2178125801       1.0000     90.10      100.00     5.96       0
SC_31916         RG_SANTACRUZ     2178126901       1.0000     95.00      100.00     5.34       0
SC_31917         RG_SANTACRUZ     2178127901       1.0000     95.00      100.00     3.15       0
SC_31918         RG_SANTACRUZ     2178127901       1.0000     76.90      100.00     3.78       0
SC_31919         RG_SANTACRUZ     2178127901       1.0000     90.90      100.00     3.60       0
SC_31920         RG_SANTACRUZ     2178138101       1.0000     91.70      100.00     1.36       0
SC_31921         RG_SANTACRUZ     2178138101       1.0000     95.00      100.00     2.75       0
SC_31922         RG_SANTACRUZ     2178136404       1.0000     95.00      100.00     4.25       0
SC_31923         RG_SANTACRUZ     2178136404       1.0000     95.00      100.00     2.93       0
SC_31924         RG_SANTACRUZ     2178136502       1.0000     95.00      100.00     3.31       0
SC_31925         RG_SANTACRUZ     2178137603       1.0000     93.40      100.00     4.86       0
SC_31926         RG_SANTACRUZ     2178137603       1.0000     84.30      100.00     12.11      0
SC_31927         RG_SANTACRUZ     2178137801       1.0000     86.00      100.00     6.04       0
SC_31928         RG_SANTACRUZ     2178137801       1.0000     95.00      100.00     20.28      0
SC_31929         RG_SANTACRUZ     2178147001       1.0000     66.90      100.00     35.10      0
SC_31930         RG_SANTACRUZ     2178148201       1.0000     93.40      100.00     13.06      0
SC_31931         RG_SANTACRUZ     2178147203       1.0000     90.10      100.00     9.04       0
SC_31932         RG_SANTACRUZ     2178147302       1.0000     77.70      100.00     11.84      0
SC_31933         RG_SANTACRUZ     2178148401       1.0000     93.40      100.00     12.81      0
SC_31934         RG_SANTACRUZ     2178148501       1.0000     81.00      100.00     12.94      0
SC_31935         RG_SANTACRUZ     2178148701       1.0000     31.40      100.00     18.21      0
SC_31936         RG_SANTACRUZ     2178148701       1.0000     60.30      100.00     11.31      0
SC_31937         RG_SANTACRUZ     2178148801       1.0000     36.40      100.00     9.67       0
SC_31938         RG_SANTACRUZ     2178148801       1.0000     8.30       100.00     8.67       0
SC_31939         RG_SANTACRUZ     2178148801       1.0000     5.00       100.00     5.55       0
SC_31940         RG_SANTACRUZ     2178148801       1.0000     5.00       100.00     21.23      0
SC_31941         RG_SANTACRUZ     2178148801       1.0000     8.30       100.00     20.26      0
SC_31942         RG_SANTACRUZ     2178148801       1.0000     24.80      100.00     16.81      0
SC_31943         RG_SANTACRUZ     2178148801       1.0000     34.70      100.00     22.06      0
SC_32193         RG_SANTACRUZ     2179122305       1.0000     95.00      100.00     23.90      0
SC_32194         RG_SANTACRUZ     2179122501       1.0000     95.00      100.00     13.56      0
SC_32195         RG_SANTACRUZ     2178128901       1.0000     95.00      100.00     8.39       0
SC_32196         RG_SANTACRUZ     2178128901       1.0000     95.00      100.00     10.93      0
SC_32197         RG_SANTACRUZ     2178128901       1.0000     95.00      100.00     3.43       0
SC_32198         RG_SANTACRUZ     2178128901       1.0000     95.00      100.00     2.93       0
SC_32199         RG_SANTACRUZ     2178128901       1.0000     95.00      100.00     9.62       0
SC_32200         RG_SANTACRUZ     2178138101       1.0000     95.00      100.00     5.97       0
SC_32201         RG_SANTACRUZ     2178138101       1.0000     95.00      100.00     4.22       0
SC_32202         RG_SANTACRUZ     2178138101       1.0000     95.00      100.00     5.44       0
SC_32203         RG_SANTACRUZ     2178136404       1.0000     95.00      100.00     1.56       0
SC_32204         RG_SANTACRUZ     2178138601       1.0000     95.00      100.00     3.70       0
SC_32205         RG_SANTACRUZ     2178138601       1.0000     95.00      100.00     4.17       0
SC_32206         RG_SANTACRUZ     2178138601       1.0000     95.00      100.00     6.70       0
SC_32207         RG_SANTACRUZ     2178137801       1.0000     81.80      100.00     10.78      0
SC_32208         RG_SANTACRUZ     2178137801       1.0000     84.30      100.00     19.81      0
SC_32209         RG_SANTACRUZ     2178147001       1.0000     88.40      100.00     27.33      0
SC_32210         RG_SANTACRUZ     2178148201       1.0000     25.60      100.00     22.74      0
SC_32211         RG_SANTACRUZ     2178148201       1.0000     5.00       100.00     3.74       0
SC_32212         RG_SANTACRUZ     2178148301       1.0000     19.00      100.00     7.61       0
SC_32213         RG_SANTACRUZ     2178148401       1.0000     72.70      100.00     11.98      0
SC_32214         RG_SANTACRUZ     2178148501       1.0000     66.90      100.00     32.89      0
SC_32215         RG_SANTACRUZ     2178148701       1.0000     20.70      100.00     26.13      0
SC_32216         RG_SANTACRUZ     2178148701       1.0000     30.60      100.00     17.66      0
SC_32217         RG_SANTACRUZ     2178148801       1.0000     26.40      100.00     9.87       0
SC_32218         RG_SANTACRUZ     2178148801       1.0000     19.80      100.00     8.15       0
SC_32219         RG_SANTACRUZ     2178148801       1.0000     14.90      100.00     7.79       0
SC_32220         RG_SANTACRUZ     2178148801       1.0000     5.00       100.00     8.56       0
SC_32221         RG_SANTACRUZ     2178148801       1.0000     5.00       100.00     25.50      0
SC_32222         RG_SANTACRUZ     2178148801       1.0000     5.00       100.00     18.38      0
SC_32223         RG_SANTACRUZ     2178148801       1.0000     5.00       100.00     24.56      0
SC_32473         RG_SANTACRUZ     2179122305       1.0000     81.80      100.00     16.35      0
SC_32474         RG_SANTACRUZ     2179122501       1.0000     84.30      100.00     10.66      0
SC_32475         RG_SANTACRUZ     2179122602       1.0000     95.00      100.00     14.97      0
SC_32476         RG_SANTACRUZ     2179121802       1.0000     73.60      100.00     21.04      0
SC_32477         RG_SANTACRUZ     2178128901       1.0000     86.80      100.00     20.78      0
SC_32478         RG_SANTACRUZ     2178128901       1.0000     93.40      100.00     21.62      0
SC_32479         RG_SANTACRUZ     2178128901       1.0000     70.90      100.00     40.38      0
SC_32480         RG_SANTACRUZ     2178138101       1.0000     52.10      100.00     32.82      0
SC_32481         RG_SANTACRUZ     2178138101       1.0000     95.00      100.00     12.63      0
SC_32482         RG_SANTACRUZ     2178138101       1.0000     95.00      100.00     15.90      0
SC_32483         RG_SANTACRUZ     2179130501       1.0000     90.10      100.00     6.17       0
SC_32484         RG_SANTACRUZ     2178139601       1.0000     89.30      100.00     4.01       0
SC_32485         RG_SANTACRUZ     2178139601       1.0000     94.20      100.00     3.50       0
SC_32486         RG_SANTACRUZ     2178138601       1.0000     95.00      100.00     4.33       0
SC_32487         RG_SANTACRUZ     2178137801       1.0000     95.00      100.00     50.09      0
SC_32488         RG_SANTACRUZ     2178137801       1.0000     68.60      100.00     32.45      0
SC_32489         RG_SANTACRUZ     2178147001       1.0000     91.70      100.00     17.73      0
SC_32490         RG_SANTACRUZ     2178148201       1.0000     5.00       100.00     26.28      0
SC_32491         RG_SANTACRUZ     2178148201       1.0000     5.00       100.00     25.10      0
SC_32492         RG_SANTACRUZ     2178148301       1.0000     5.80       100.00     11.88      0
SC_32493         RG_SANTACRUZ     2178148401       1.0000     57.90      100.00     18.62      0
SC_32494         RG_SANTACRUZ     2178148501       1.0000     64.50      100.00     22.17      0
SC_32495         RG_SANTACRUZ     2178148701       1.0000     55.40      100.00     19.60      0
SC_32496         RG_SANTACRUZ     2178149701       1.0000     52.10      100.00     22.36      0
SC_32497         RG_SANTACRUZ     2178149701       1.0000     55.40      100.00     51.87      0
SC_32498         RG_SANTACRUZ     2178149701       1.0000     61.20      100.00     17.81      0
SC_32499         RG_SANTACRUZ     2178149701       1.0000     90.10      100.00     7.04       0
SC_32500         RG_SANTACRUZ     2178149701       1.0000     61.20      100.00     5.78       0
SC_32501         RG_SANTACRUZ     2178148801       1.0000     11.60      100.00     9.26       0
SC_32502         RG_SANTACRUZ     2178148801       1.0000     46.30      100.00     11.74      0
SC_32759         RG_SANTACRUZ     2178138101       1.0000     5.00       100.00     40.17      0
SC_32760         RG_SANTACRUZ     2178138101       1.0000     29.80      100.00     48.92      0
SC_32761         RG_SANTACRUZ     2179130501       1.0000     72.70      100.00     29.77      0
SC_32762         RG_SANTACRUZ     2179130501       1.0000     5.80       100.00     9.42       0
SC_32763         RG_SANTACRUZ     2179130501       1.0000     24.00      100.00     16.47      0
SC_32764         RG_SANTACRUZ     2179130602       1.0000     95.00      100.00     20.73      0
SC_32765         RG_SANTACRUZ     2179130602       1.0000     81.80      100.00     6.21       0
SC_32766         RG_SANTACRUZ     2179130602       1.0000     95.00      100.00     27.00      0
SC_32767         RG_SANTACRUZ     2179130602       1.0000     40.50      100.00     38.19      0
SC_32768         RG_SANTACRUZ     2178147001       1.0000     64.50      100.00     30.32      0
SC_32769         RG_SANTACRUZ     2178148201       1.0000     5.00       100.00     20.50      0
SC_32770         RG_SANTACRUZ     2178148201       1.0000     5.00       100.00     19.75      0
SC_32771         RG_SANTACRUZ     2178148301       1.0000     5.00       100.00     16.00      0
SC_32772         RG_SANTACRUZ     2179141601       1.0000     5.00       100.00     18.85      0
SC_32773         RG_SANTACRUZ     2179141601       1.0000     9.90       100.00     14.28      0
SC_32774         RG_SANTACRUZ     2179141601       1.0000     19.80      100.00     12.03      0
SC_32775         RG_SANTACRUZ     2179140701       1.0000     70.20      100.00     53.49      0
SC_32776         RG_SANTACRUZ     2179140701       1.0000     28.10      100.00     59.96      0
SC_32777         RG_SANTACRUZ     2178149701       1.0000     9.10       100.00     20.19      0
SC_32778         RG_SANTACRUZ     2178149701       1.0000     5.00       100.00     15.26      0
SC_32779         RG_SANTACRUZ     2178149701       1.0000     9.90       100.00     7.69       0
SC_32780         RG_SANTACRUZ     2178149701       1.0000     47.10      100.00     34.47      0
SC_32781         RG_SANTACRUZ     2178149701       1.0000     37.20      100.00     36.67      0
SC_33039         RG_SANTACRUZ     2179130501       1.0000     17.40      100.00     45.75      0
SC_33040         RG_SANTACRUZ     2179130501       1.0000     20.70      100.00     47.91      0
SC_33041         RG_SANTACRUZ     2179130501       1.0000     66.10      100.00     15.77      0
SC_33042         RG_SANTACRUZ     2179130602       1.0000     95.00      100.00     13.68      0
SC_33043         RG_SANTACRUZ     2179130602       1.0000     86.00      100.00     28.87      0
SC_33044         RG_SANTACRUZ     2179130602       1.0000     55.40      100.00     14.29      0
SC_33045         RG_SANTACRUZ     2179130602       1.0000     5.80       100.00     8.15       0
SC_33046         RG_SANTACRUZ     2178147001       1.0000     9.90       100.00     11.32      0
SC_33047         RG_SANTACRUZ     2178148201       1.0000     34.70      100.00     10.22      0
SC_33048         RG_SANTACRUZ     2178148201       1.0000     14.00      100.00     16.47      0
SC_33049         RG_SANTACRUZ     2179141601       1.0000     32.20      100.00     13.77      0
SC_33050         RG_SANTACRUZ     2179141601       1.0000     57.00      100.00     26.13      0
SC_33051         RG_SANTACRUZ     2179141601       1.0000     14.00      100.00     34.03      0
SC_33052         RG_SANTACRUZ     2179141601       1.0000     12.40      100.00     8.96       0
SC_33053         RG_SANTACRUZ     2179141701       1.0000     62.80      100.00     32.79      0
SC_33054         RG_SANTACRUZ     2179141701       1.0000     70.20      100.00     52.91      0
SC_33055         RG_SANTACRUZ     2179140701       1.0000     13.20      100.00     78.06      0
SC_33056         RG_SANTACRUZ     2179140701       1.0000     5.80       100.00     57.42      0
SC_33057         RG_SANTACRUZ     2178149701       1.0000     9.10       100.00     13.87      0
SC_33058         RG_SANTACRUZ     2179155101       1.0000     5.00       100.00     18.87      0
SC_33316         RG_SANTACRUZ     2179130501       1.0000     90.90      100.00     28.20      0
SC_33317         RG_SANTACRUZ     2179130601       1.0000     64.50      100.00     24.86      0
SC_33318         RG_SANTACRUZ     2179130602       1.0000     95.00      100.00     8.88       0
SC_33319         RG_SANTACRUZ     2179130602       1.0000     95.00      100.00     8.80       0
SC_33320         RG_SANTACRUZ     2179130602       1.0000     89.30      100.00     22.76      0
SC_33321         RG_SANTACRUZ     2179130602       1.0000     73.60      100.00     15.65      0
SC_33322         RG_SANTACRUZ     2179130602       1.0000     53.70      100.00     13.09      0
SC_33323         RG_SANTACRUZ     2178148201       1.0000     49.60      100.00     10.76      0
SC_33324         RG_SANTACRUZ     2179141601       1.0000     17.40      100.00     7.24       0
SC_33325         RG_SANTACRUZ     2179141601       1.0000     68.60      100.00     7.97       0
SC_33326         RG_SANTACRUZ     2179141601       1.0000     76.00      100.00     14.41      0
SC_33327         RG_SANTACRUZ     2179141601       1.0000     34.70      100.00     13.94      0
SC_33328         RG_SANTACRUZ     2179141601       1.0000     5.00       100.00     8.01       0
SC_33329         RG_SANTACRUZ     2179141701       1.0000     49.60      100.00     14.79      0
SC_33330         RG_SANTACRUZ     2179141701       1.0000     74.40      100.00     37.72      0
SC_33331         RG_SANTACRUZ     2179141701       1.0000     94.20      100.00     31.84      0
SC_33332         RG_SANTACRUZ     2179141701       1.0000     62.80      100.00     40.46      0
SC_33333         RG_SANTACRUZ     2179155101       1.0000     60.30      100.00     14.54      0
SC_33334         RG_SANTACRUZ     2179155101       1.0000     53.70      100.00     18.74      0
SC_33593         RG_SANTACRUZ     2179135401       1.0000     36.40      100.00     56.18      0
SC_33594         RG_SANTACRUZ     2179130602       1.0000     70.20      100.00     33.66      0
SC_33595         RG_SANTACRUZ     2179130602       1.0000     95.00      100.00     13.11      0
SC_33596         RG_SANTACRUZ     2179130602       1.0000     95.00      100.00     14.41      0
SC_33597         RG_SANTACRUZ     2179130602       1.0000     82.60      100.00     23.78      0
SC_33598         RG_SANTACRUZ     2179130602       1.0000     65.30      100.00     20.27      0
SC_33599         RG_SANTACRUZ     2178148201       1.0000     92.60      100.00     19.58      0
SC_33600         RG_SANTACRUZ     2179141601       1.0000     76.90      100.00     17.76      0
SC_33601         RG_SANTACRUZ     2179141601       1.0000     95.00      100.00     18.47      0
SC_33602         RG_SANTACRUZ     2179141601       1.0000     82.60      100.00     17.70      0
SC_33603         RG_SANTACRUZ     2179141601       1.0000     43.80      100.00     8.29       0
SC_33604         RG_SANTACRUZ     2179141601       1.0000     17.40      100.00     6.17       0
SC_33605         RG_SANTACRUZ     2179141701       1.0000     76.00      100.00     21.21      0
SC_33606         RG_SANTACRUZ     2179141701       1.0000     89.30      100.00     37.08      0
SC_33607         RG_SANTACRUZ     2179141701       1.0000     58.70      100.00     31.58      0
SC_33608         RG_SANTACRUZ     2179155101       1.0000     79.30      100.00     17.10      0
SC_33609         RG_SANTACRUZ     2179155101       1.0000     63.60      100.00     14.73      0
SC_33869         RG_SANTACRUZ     2179135401       1.0000     5.00       100.00     59.69      0
SC_33870         RG_SANTACRUZ     2179135401       1.0000     14.00      100.00     64.02      0
SC_33871         RG_SANTACRUZ     2179130602       1.0000     63.60      100.00     49.29      0
SC_33872         RG_SANTACRUZ     2179130602       1.0000     92.60      100.00     20.55      0
SC_33873         RG_SANTACRUZ     2179130602       1.0000     61.20      100.00     10.58      0
SC_33874         RG_SANTACRUZ     2179141601       1.0000     48.80      100.00     13.93      0
SC_33875         RG_SANTACRUZ     2179141601       1.0000     62.00      100.00     16.35      0
SC_33876         RG_SANTACRUZ     2179141601       1.0000     71.90      100.00     17.37      0
SC_33877         RG_SANTACRUZ     2179141601       1.0000     92.60      100.00     21.87      0
SC_33878         RG_SANTACRUZ     2179141601       1.0000     38.80      100.00     12.26      0
SC_33879         RG_SANTACRUZ     2179141601       1.0000     61.20      100.00     24.25      0
SC_33880         RG_SANTACRUZ     2179141701       1.0000     57.00      100.00     48.71      0
SC_33881         RG_SANTACRUZ     2179141701       1.0000     69.40      100.00     39.89      0
SC_33882         RG_SANTACRUZ     2179155101       1.0000     41.30      100.00     29.59      0
SC_33883         RG_SANTACRUZ     2179155101       1.0000     70.20      100.00     12.25      0
SC_34144         RG_SANTACRUZ     2179135401       1.0000     5.00       100.00     29.27      0
SC_34145         RG_SANTACRUZ     2179135401       1.0000     5.00       100.00     49.96      0
SC_34146         RG_SANTACRUZ     2179135401       1.0000     24.80      100.00     52.74      0
SC_34147         RG_SANTACRUZ     2179130602       1.0000     8.30       100.00     42.07      0
SC_34148         RG_SANTACRUZ     2179141601       1.0000     5.00       100.00     23.87      0
SC_34149         RG_SANTACRUZ     2179141601       1.0000     5.00       100.00     10.24      0
SC_34150         RG_SANTACRUZ     2179141601       1.0000     5.00       100.00     6.94       0
SC_34151         RG_SANTACRUZ     2179141601       1.0000     37.20      100.00     7.99       0
SC_34152         RG_SANTACRUZ     2179141601       1.0000     9.10       100.00     16.59      0
SC_34153         RG_SANTACRUZ     2179141601       1.0000     5.00       100.00     22.39      0
SC_34155         RG_SANTACRUZ     2179155101       1.0000     60.30      100.00     33.98      0
SC_34418         RG_SANTACRUZ     2179135401       1.0000     5.00       100.00     37.12      0
SC_34419         RG_SANTACRUZ     2179135401       1.0000     5.00       100.00     50.64      0
SC_34420         RG_SANTACRUZ     2179135401       1.0000     5.00       100.00     56.33      0
SC_34421         RG_SANTACRUZ     2180140601       1.0000     5.00       100.00     74.24      0
SC_34422         RG_SANTACRUZ     2180140601       1.0000     5.00       100.00     54.35      0
SC_34423         RG_SANTACRUZ     2180140601       1.0000     5.00       100.00     51.81      0
SC_34424         RG_SANTACRUZ     2180140601       1.0000     5.00       100.00     63.97      0
SC_34694         RG_SANTACRUZ     2180132501       1.0000     5.00       100.00     38.36      0
SC_34695         RG_SANTACRUZ     2180140601       1.0000     5.00       100.00     53.19      0
SC_34696         RG_SANTACRUZ     2180140601       1.0000     5.00       100.00     53.73      0
SC_34697         RG_SANTACRUZ     2180140601       1.0000     5.00       100.00     50.61      0
SC_34698         RG_SANTACRUZ     2180140601       1.0000     5.00       100.00     40.48      0
SC_34969         RG_SANTACRUZ     2180140601       1.0000     5.00       100.00     24.88      0
SC_34970         RG_SANTACRUZ     2180140601       1.0000     5.00       100.00     48.06      0

[SUBAREAS]
;;Subcatchment   N-Imperv   N-Perv     S-Imperv   S-Perv     PctZero    RouteTo    PctRouted
SC_22963         0.0150     0.2000     2.00       5.00       25.00      OUTLET
SC_22964         0.0150     0.2000     2.00       5.00       25.00      OUTLET
SC_23248         0.0150     0.2000     2.00       5.00       25.00      OUTLET
SC_23249         0.0150     0.2000     2.00       5.00       25.00      OUTLET
SC_23250         0.0150     0.2000     2.00       5.00       25.00      OUTLET
SC_23251         0.0150     0.2000     2.00       5.00       25.00      OUTLET
SC_23252         0.0150     0.2000     2.00       5.00       25.00      OUTLET
SC_23253         0.0150     0.2000     2.00       5.00       25.00      OUTLET
SC_23536         0.0150     0.2000     2.00       5.00       25.00      OUTLET
SC_23537         0.0150     0.2000     2.00       5.00       25.00      OUTLET
SC_23538         0.0150     0.2000     2.00       5.00       25.00      OUTLET
SC_23539         0.0150     0.2000     2.00       5.00       25.00      OUTLET
SC_23540         0.0150     0.2000     2.00       5.00       25.00      OUTLET
SC_23541         0.0150     0.2000     2.00       5.00       25.00      OUTLET
SC_23542         0.0150     0.2000     2.00       5.00       25.00      OUTLET
SC_23543         0.0150     0.2000     2.00       5.00       25.00      OUTLET
SC_23823         0.0150     0.2000     2.00       5.00       25.00      OUTLET
SC_23824         0.0150     0.2000     2.00       5.00       25.00      OUTLET
SC_23825         0.0150     0.2000     2.00       5.00       25.00      OUTLET
SC_23826         0.0150     0.2000     2.00       5.00       25.00      OUTLET
SC_23827         0.0150     0.2000     2.00       5.00       25.00      OUTLET
SC_23828         0.0150     0.2000     2.00       5.00       25.00      OUTLET
SC_23829         0.0150     0.2000     2.00       5.00       25.00      OUTLET
SC_23830         0.0150     0.2000     2.00       5.00       25.00      OUTLET
SC_23831         0.0150     0.2000     2.00       5.00       25.00      OUTLET
SC_23832         0.0150     0.2000     2.00       5.00       25.00      OUTLET
SC_24105         0.0150     0.2000     2.00       5.00       25.00      OUTLET
SC_24106         0.0150     0.2000     2.00       5.00       25.00      OUTLET
SC_24107         0.0150     0.2000     2.00       5.00       25.00      OUTLET
SC_24108         0.0150     0.2000     2.00       5.00       25.00      OUTLET
SC_24109         0.0150     0.2000     2.00       5.00       25.00      OUTLET
SC_24110         0.0150     0.2000     2.00       5.00       25.00      OUTLET
SC_24111         0.0150     0.2000     2.00       5.00       25.00      OUTLET
SC_24112         0.0150     0.2000     2.00       5.00       25.00      OUTLET
SC_24113         0.0150     0.2000     2.00       5.00       25.00      OUTLET
SC_24114         0.0150     0.2000     2.00       5.00       25.00      OUTLET
SC_24115         0.0150     0.2000     2.00       5.00       25.00      OUTLET
SC_24116         0.0150     0.2000     2.00       5.00       25.00      OUTLET
SC_24117         0.0150     0.2000     2.00       5.00       25.00      OUTLET
SC_24118         0.0150     0.2000     2.00       5.00       25.00      OUTLET
SC_24387         0.0150     0.2000     2.00       5.00       25.00      OUTLET
SC_24388         0.0150     0.2000     2.00       5.00       25.00      OUTLET
SC_24389         0.0150     0.2000     2.00       5.00       25.00      OUTLET
SC_24390         0.0150     0.2000     2.00       5.00       25.00      OUTLET
SC_24391         0.0150     0.2000     2.00       5.00       25.00      OUTLET
SC_24392         0.0150     0.2000     2.00       5.00       25.00      OUTLET
SC_24393         0.0150     0.2000     2.00       5.00       25.00      OUTLET
SC_24394         0.0150     0.2000     2.00       5.00       25.00      OUTLET
SC_24395         0.0150     0.2000     2.00       5.00       25.00      OUTLET
SC_24396         0.0150     0.2000     2.00       5.00       25.00      OUTLET
SC_24397         0.0150     0.2000     2.00       5.00       25.00      OUTLET
SC_24398         0.0150     0.2000     2.00       5.00       25.00      OUTLET
SC_24399         0.0150     0.2000     2.00       5.00       25.00      OUTLET
SC_24400         0.0150     0.2000     2.00       5.00       25.00      OUTLET
SC_24401         0.0150     0.2000     2.00       5.00       25.00      OUTLET
SC_24402         0.0150     0.2000     2.00       5.00       25.00      OUTLET
SC_24668         0.0150     0.2000     2.00       5.00       25.00      OUTLET
SC_24669         0.0150     0.2000     2.00       5.00       25.00      OUTLET
SC_24670         0.0150     0.2000     2.00       5.00       25.00      OUTLET
SC_24671         0.0150     0.2000     2.00       5.00       25.00      OUTLET
SC_24672         0.0150     0.2000     2.00       5.00       25.00      OUTLET
SC_24673         0.0150     0.2000     2.00       5.00       25.00      OUTLET
SC_24674         0.0150     0.2000     2.00       5.00       25.00      OUTLET
SC_24675         0.0150     0.2000     2.00       5.00       25.00      OUTLET
SC_24676         0.0150     0.2000     2.00       5.00       25.00      OUTLET
SC_24677         0.0150     0.2000     2.00       5.00       25.00      OUTLET
SC_24678         0.0150     0.2000     2.00       5.00       25.00      OUTLET
SC_24679         0.0150     0.2000     2.00       5.00       25.00      OUTLET
SC_24680         0.0150     0.2000     2.00       5.00       25.00      OUTLET
SC_24681         0.0150     0.2000     2.00       5.00       25.00      OUTLET
SC_24682         0.0150     0.2000     2.00       5.00       25.00      OUTLET
SC_24683         0.0150     0.2000     2.00       5.00       25.00      OUTLET
SC_24684         0.0150     0.2000     2.00       5.00       25.00      OUTLET
SC_24685         0.0150     0.2000     2.00       5.00       25.00      OUTLET
SC_24692         0.0150     0.2000     2.00       5.00       25.00      OUTLET
SC_24693         0.0150     0.2000     2.00       5.00       25.00      OUTLET
SC_24694         0.0150     0.2000     2.00       5.00       25.00      OUTLET
SC_24695         0.0150     0.2000     2.00       5.00       25.00      OUTLET
SC_24945         0.0150     0.2000     2.00       5.00       25.00      OUTLET
SC_24946         0.0150     0.2000     2.00       5.00       25.00      OUTLET
SC_24947         0.0150     0.2000     2.00       5.00       25.00      OUTLET
SC_24948         0.0150     0.2000     2.00       5.00       25.00      OUTLET
SC_24949         0.0150     0.2000     2.00       5.00       25.00      OUTLET
SC_24950         0.0150     0.2000     2.00       5.00       25.00      OUTLET
SC_24951         0.0150     0.2000     2.00       5.00       25.00      OUTLET
SC_24952         0.0150     0.2000     2.00       5.00       25.00      OUTLET
SC_24953         0.0150     0.2000     2.00       5.00       25.00      OUTLET
SC_24954         0.0150     0.2000     2.00       5.00       25.00      OUTLET
SC_24955         0.0150     0.2000     2.00       5.00       25.00      OUTLET
SC_24956         0.0150     0.2000     2.00       5.00       25.00      OUTLET
SC_24957         0.0150     0.2000     2.00       5.00       25.00      OUTLET
SC_24958         0.0150     0.2000     2.00       5.00       25.00      OUTLET
SC_24959         0.0150     0.2000     2.00       5.00       25.00      OUTLET
SC_24960         0.0150     0.2000     2.00       5.00       25.00      OUTLET
SC_24961         0.0150     0.2000     2.00       5.00       25.00      OUTLET
SC_24962         0.0150     0.2000     2.00       5.00       25.00      OUTLET
SC_24963         0.0150     0.2000     2.00       5.00       25.00      OUTLET
SC_24964         0.0150     0.2000     2.00       5.00       25.00      OUTLET
SC_24965         0.0150     0.2000     2.00       5.00       25.00      OUTLET
SC_24966         0.0150     0.2000     2.00       5.00       25.00      OUTLET
SC_24967         0.0150     0.2000     2.00       5.00       25.00      OUTLET
SC_24968         0.0150     0.2000     2.00       5.00       25.00      OUTLET
SC_24969         0.0150     0.2000     2.00       5.00       25.00      OUTLET
SC_24970         0.0150     0.2000     2.00       5.00       25.00      OUTLET
SC_24971         0.0150     0.2000     2.00       5.00       25.00      OUTLET
SC_24972         0.0150     0.2000     2.00       5.00       25.00      OUTLET
SC_24973         0.0150     0.2000     2.00       5.00       25.00      OUTLET
SC_24974         0.0150     0.2000     2.00       5.00       25.00      OUTLET
SC_25224         0.0150     0.2000     2.00       5.00       25.00      OUTLET
SC_25225         0.0150     0.2000     2.00       5.00       25.00      OUTLET
SC_25226         0.0150     0.2000     2.00       5.00       25.00      OUTLET
SC_25227         0.0150     0.2000     2.00       5.00       25.00      OUTLET
SC_25228         0.0150     0.2000     2.00       5.00       25.00      OUTLET
SC_25229         0.0150     0.2000     2.00       5.00       25.00      OUTLET
SC_25230         0.0150     0.2000     2.00       5.00       25.00      OUTLET
SC_25231         0.0150     0.2000     2.00       5.00       25.00      OUTLET
SC_25232         0.0150     0.2000     2.00       5.00       25.00      OUTLET
SC_25233         0.0150     0.2000     2.00       5.00       25.00      OUTLET
SC_25234         0.0150     0.2000     2.00       5.00       25.00      OUTLET
SC_25235         0.0150     0.2000     2.00       5.00       25.00      OUTLET
SC_25236         0.0150     0.2000     2.00       5.00       25.00      OUTLET
SC_25237         0.0150     0.2000     2.00       5.00       25.00      OUTLET
SC_25238         0.0150     0.2000     2.00       5.00       25.00      OUTLET
SC_25239         0.0150     0.2000     2.00       5.00       25.00      OUTLET
SC_25240         0.0150     0.2000     2.00       5.00       25.00      OUTLET
SC_25241         0.0150     0.2000     2.00       5.00       25.00      OUTLET
SC_25242         0.0150     0.2000     2.00       5.00       25.00      OUTLET
SC_25243         0.0150     0.2000     2.00       5.00       25.00      OUTLET
SC_25244         0.0150     0.2000     2.00       5.00       25.00      OUTLET
SC_25245         0.0150     0.2000     2.00       5.00       25.00      OUTLET
SC_25246         0.0150     0.2000     2.00       5.00       25.00      OUTLET
SC_25247         0.0150     0.2000     2.00       5.00       25.00      OUTLET
SC_25248         0.0150     0.2000     2.00       5.00       25.00      OUTLET
SC_25249         0.0150     0.2000     2.00       5.00       25.00      OUTLET
SC_25250         0.0150     0.2000     2.00       5.00       25.00      OUTLET
SC_25251         0.0150     0.2000     2.00       5.00       25.00      OUTLET
SC_25252         0.0150     0.2000     2.00       5.00       25.00      OUTLET
SC_25253         0.0150     0.2000     2.00       5.00       25.00      OUTLET
SC_25501         0.0150     0.2000     2.00       5.00       25.00      OUTLET
SC_25502         0.0150     0.2000     2.00       5.00       25.00      OUTLET
SC_25503         0.0150     0.2000     2.00       5.00       25.00      OUTLET
SC_25504         0.0150     0.2000     2.00       5.00       25.00      OUTLET
SC_25505         0.0150     0.2000     2.00       5.00       25.00      OUTLET
SC_25506         0.0150     0.2000     2.00       5.00       25.00      OUTLET
SC_25507         0.0150     0.2000     2.00       5.00       25.00      OUTLET
SC_25508         0.0150     0.2000     2.00       5.00       25.00      OUTLET
SC_25509         0.0150     0.2000     2.00       5.00       25.00      OUTLET
SC_25510         0.0150     0.2000     2.00       5.00       25.00      OUTLET
SC_25511         0.0150     0.2000     2.00       5.00       25.00      OUTLET
SC_25512         0.0150     0.2000     2.00       5.00       25.00      OUTLET
SC_25513         0.0150     0.2000     2.00       5.00       25.00      OUTLET
SC_25514         0.0150     0.2000     2.00       5.00       25.00      OUTLET
SC_25515         0.0150     0.2000     2.00       5.00       25.00      OUTLET
SC_25516         0.0150     0.2000     2.00       5.00       25.00      OUTLET
SC_25517         0.0150     0.2000     2.00       5.00       25.00      OUTLET
SC_25518         0.0150     0.2000     2.00       5.00       25.00      OUTLET
SC_25519         0.0150     0.2000     2.00       5.00       25.00      OUTLET
SC_25520         0.0150     0.2000     2.00       5.00       25.00      OUTLET
SC_25521         0.0150     0.2000     2.00       5.00       25.00      OUTLET
SC_25522         0.0150     0.2000     2.00       5.00       25.00      OUTLET
SC_25523         0.0150     0.2000     2.00       5.00       25.00      OUTLET
SC_25524         0.0150     0.2000     2.00       5.00       25.00      OUTLET
SC_25525         0.0150     0.2000     2.00       5.00       25.00      OUTLET
SC_25526         0.0150     0.2000     2.00       5.00       25.00      OUTLET
SC_25527         0.0150     0.2000     2.00       5.00       25.00      OUTLET
SC_25528         0.0150     0.2000     2.00       5.00       25.00      OUTLET
SC_25529         0.0150     0.2000     2.00       5.00       25.00      OUTLET
SC_25530         0.0150     0.2000     2.00       5.00       25.00      OUTLET
SC_25531         0.0150     0.2000     2.00       5.00       25.00      OUTLET
SC_25532         0.0150     0.2000     2.00       5.00       25.00      OUTLET
SC_25778         0.0150     0.2000     2.00       5.00       25.00      OUTLET
SC_25779         0.0150     0.2000     2.00       5.00       25.00      OUTLET
SC_25780         0.0150     0.2000     2.00       5.00       25.00      OUTLET
SC_25781         0.0150     0.2000     2.00       5.00       25.00      OUTLET
SC_25782         0.0150     0.2000     2.00       5.00       25.00      OUTLET
SC_25783         0.0150     0.2000     2.00       5.00       25.00      OUTLET
SC_25784         0.0150     0.2000     2.00       5.00       25.00      OUTLET
SC_25785         0.0150     0.2000     2.00       5.00       25.00      OUTLET
SC_25786         0.0150     0.2000     2.00       5.00       25.00      OUTLET
SC_25787         0.0150     0.2000     2.00       5.00       25.00      OUTLET
SC_25788         0.0150     0.2000     2.00       5.00       25.00      OUTLET
SC_25789         0.0150     0.2000     2.00       5.00       25.00      OUTLET
SC_25790         0.0150     0.2000     2.00       5.00       25.00      OUTLET
SC_25791         0.0150     0.2000     2.00       5.00       25.00      OUTLET
SC_25792         0.0150     0.2000     2.00       5.00       25.00      OUTLET
SC_25793         0.0150     0.2000     2.00       5.00       25.00      OUTLET
SC_25794         0.0150     0.2000     2.00       5.00       25.00      OUTLET
SC_25795         0.0150     0.2000     2.00       5.00       25.00      OUTLET
SC_25796         0.0150     0.2000     2.00       5.00       25.00      OUTLET
SC_25797         0.0150     0.2000     2.00       5.00       25.00      OUTLET
SC_25798         0.0150     0.2000     2.00       5.00       25.00      OUTLET
SC_25799         0.0150     0.2000     2.00       5.00       25.00      OUTLET
SC_25800         0.0150     0.2000     2.00       5.00       25.00      OUTLET
SC_25801         0.0150     0.2000     2.00       5.00       25.00      OUTLET
SC_25802         0.0150     0.2000     2.00       5.00       25.00      OUTLET
SC_25803         0.0150     0.2000     2.00       5.00       25.00      OUTLET
SC_25804         0.0150     0.2000     2.00       5.00       25.00      OUTLET
SC_25805         0.0150     0.2000     2.00       5.00       25.00      OUTLET
SC_25806         0.0150     0.2000     2.00       5.00       25.00      OUTLET
SC_25807         0.0150     0.2000     2.00       5.00       25.00      OUTLET
SC_25808         0.0150     0.2000     2.00       5.00       25.00      OUTLET
SC_25809         0.0150     0.2000     2.00       5.00       25.00      OUTLET
SC_25810         0.0150     0.2000     2.00       5.00       25.00      OUTLET
SC_26054         0.0150     0.2000     2.00       5.00       25.00      OUTLET
SC_26055         0.0150     0.2000     2.00       5.00       25.00      OUTLET
SC_26057         0.0150     0.2000     2.00       5.00       25.00      OUTLET
SC_26058         0.0150     0.2000     2.00       5.00       25.00      OUTLET
SC_26059         0.0150     0.2000     2.00       5.00       25.00      OUTLET
SC_26060         0.0150     0.2000     2.00       5.00       25.00      OUTLET
SC_26061         0.0150     0.2000     2.00       5.00       25.00      OUTLET
SC_26062         0.0150     0.2000     2.00       5.00       25.00      OUTLET
SC_26063         0.0150     0.2000     2.00       5.00       25.00      OUTLET
SC_26064         0.0150     0.2000     2.00       5.00       25.00      OUTLET
SC_26065         0.0150     0.2000     2.00       5.00       25.00      OUTLET
SC_26066         0.0150     0.2000     2.00       5.00       25.00      OUTLET
SC_26067         0.0150     0.2000     2.00       5.00       25.00      OUTLET
SC_26068         0.0150     0.2000     2.00       5.00       25.00      OUTLET
SC_26069         0.0150     0.2000     2.00       5.00       25.00      OUTLET
SC_26070         0.0150     0.2000     2.00       5.00       25.00      OUTLET
SC_26071         0.0150     0.2000     2.00       5.00       25.00      OUTLET
SC_26072         0.0150     0.2000     2.00       5.00       25.00      OUTLET
SC_26073         0.0150     0.2000     2.00       5.00       25.00      OUTLET
SC_26074         0.0150     0.2000     2.00       5.00       25.00      OUTLET
SC_26075         0.0150     0.2000     2.00       5.00       25.00      OUTLET
SC_26076         0.0150     0.2000     2.00       5.00       25.00      OUTLET
SC_26077         0.0150     0.2000     2.00       5.00       25.00      OUTLET
SC_26078         0.0150     0.2000     2.00       5.00       25.00      OUTLET
SC_26079         0.0150     0.2000     2.00       5.00       25.00      OUTLET
SC_26080         0.0150     0.2000     2.00       5.00       25.00      OUTLET
SC_26081         0.0150     0.2000     2.00       5.00       25.00      OUTLET
SC_26082         0.0150     0.2000     2.00       5.00       25.00      OUTLET
SC_26083         0.0150     0.2000     2.00       5.00       25.00      OUTLET
SC_26084         0.0150     0.2000     2.00       5.00       25.00      OUTLET
SC_26085         0.0150     0.2000     2.00       5.00       25.00      OUTLET
SC_26086         0.0150     0.2000     2.00       5.00       25.00      OUTLET
SC_26087         0.0150     0.2000     2.00       5.00       25.00      OUTLET
SC_26336         0.0150     0.2000     2.00       5.00       25.00      OUTLET
SC_26337         0.0150     0.2000     2.00       5.00       25.00      OUTLET
SC_26338         0.0150     0.2000     2.00       5.00       25.00      OUTLET
SC_26339         0.0150     0.2000     2.00       5.00       25.00      OUTLET
SC_26340         0.0150     0.2000     2.00       5.00       25.00      OUTLET
SC_26341         0.0150     0.2000     2.00       5.00       25.00      OUTLET
SC_26342         0.0150     0.2000     2.00       5.00       25.00      OUTLET
SC_26343         0.0150     0.2000     2.00       5.00       25.00      OUTLET
SC_26344         0.0150     0.2000     2.00       5.00       25.00      OUTLET
SC_26345         0.0150     0.2000     2.00       5.00       25.00      OUTLET
SC_26346         0.0150     0.2000     2.00       5.00       25.00      OUTLET
SC_26347         0.0150     0.2000     2.00       5.00       25.00      OUTLET
SC_26348         0.0150     0.2000     2.00       5.00       25.00      OUTLET
SC_26349         0.0150     0.2000     2.00       5.00       25.00      OUTLET
SC_26350         0.0150     0.2000     2.00       5.00       25.00      OUTLET
SC_26351         0.0150     0.2000     2.00       5.00       25.00      OUTLET
SC_26352         0.0150     0.2000     2.00       5.00       25.00      OUTLET
SC_26353         0.0150     0.2000     2.00       5.00       25.00      OUTLET
SC_26354         0.0150     0.2000     2.00       5.00       25.00      OUTLET
SC_26355         0.0150     0.2000     2.00       5.00       25.00      OUTLET
SC_26356         0.0150     0.2000     2.00       5.00       25.00      OUTLET
SC_26357         0.0150     0.2000     2.00       5.00       25.00      OUTLET
SC_26358         0.0150     0.2000     2.00       5.00       25.00      OUTLET
SC_26359         0.0150     0.2000     2.00       5.00       25.00      OUTLET
SC_26360         0.0150     0.2000     2.00       5.00       25.00      OUTLET
SC_26361         0.0150     0.2000     2.00       5.00       25.00      OUTLET
SC_26362         0.0150     0.2000     2.00       5.00       25.00      OUTLET
SC_26363         0.0150     0.2000     2.00       5.00       25.00      OUTLET
SC_26364         0.0150     0.2000     2.00       5.00       25.00      OUTLET
SC_26368         0.0150     0.2000     2.00       5.00       25.00      OUTLET
SC_26369         0.0150     0.2000     2.00       5.00       25.00      OUTLET
SC_26370         0.0150     0.2000     2.00       5.00       25.00      OUTLET
SC_26613         0.0150     0.2000     2.00       5.00       25.00      OUTLET
SC_26614         0.0150     0.2000     2.00       5.00       25.00      OUTLET
SC_26615         0.0150     0.2000     2.00       5.00       25.00      OUTLET
SC_26616         0.0150     0.2000     2.00       5.00       25.00      OUTLET
SC_26617         0.0150     0.2000     2.00       5.00       25.00      OUTLET
SC_26618         0.0150     0.2000     2.00       5.00       25.00      OUTLET
SC_26619         0.0150     0.2000     2.00       5.00       25.00      OUTLET
SC_26620         0.0150     0.2000     2.00       5.00       25.00      OUTLET
SC_26621         0.0150     0.2000     2.00       5.00       25.00      OUTLET
SC_26622         0.0150     0.2000     2.00       5.00       25.00      OUTLET
SC_26623         0.0150     0.2000     2.00       5.00       25.00      OUTLET
SC_26624         0.0150     0.2000     2.00       5.00       25.00      OUTLET
SC_26625         0.0150     0.2000     2.00       5.00       25.00      OUTLET
SC_26626         0.0150     0.2000     2.00       5.00       25.00      OUTLET
SC_26627         0.0150     0.2000     2.00       5.00       25.00      OUTLET
SC_26628         0.0150     0.2000     2.00       5.00       25.00      OUTLET
SC_26629         0.0150     0.2000     2.00       5.00       25.00      OUTLET
SC_26630         0.0150     0.2000     2.00       5.00       25.00      OUTLET
SC_26631         0.0150     0.2000     2.00       5.00       25.00      OUTLET
SC_26632         0.0150     0.2000     2.00       5.00       25.00      OUTLET
SC_26633         0.0150     0.2000     2.00       5.00       25.00      OUTLET
SC_26634         0.0150     0.2000     2.00       5.00       25.00      OUTLET
SC_26635         0.0150     0.2000     2.00       5.00       25.00      OUTLET
SC_26636         0.0150     0.2000     2.00       5.00       25.00      OUTLET
SC_26637         0.0150     0.2000     2.00       5.00       25.00      OUTLET
SC_26638         0.0150     0.2000     2.00       5.00       25.00      OUTLET
SC_26639         0.0150     0.2000     2.00       5.00       25.00      OUTLET
SC_26640         0.0150     0.2000     2.00       5.00       25.00      OUTLET
SC_26641         0.0150     0.2000     2.00       5.00       25.00      OUTLET
SC_26642         0.0150     0.2000     2.00       5.00       25.00      OUTLET
SC_26643         0.0150     0.2000     2.00       5.00       25.00      OUTLET
SC_26644         0.0150     0.2000     2.00       5.00       25.00      OUTLET
SC_26645         0.0150     0.2000     2.00       5.00       25.00      OUTLET
SC_26646         0.0150     0.2000     2.00       5.00       25.00      OUTLET
SC_26647         0.0150     0.2000     2.00       5.00       25.00      OUTLET
SC_26648         0.0150     0.2000     2.00       5.00       25.00      OUTLET
SC_26649         0.0150     0.2000     2.00       5.00       25.00      OUTLET
SC_26650         0.0150     0.2000     2.00       5.00       25.00      OUTLET
SC_26651         0.0150     0.2000     2.00       5.00       25.00      OUTLET
SC_26652         0.0150     0.2000     2.00       5.00       25.00      OUTLET
SC_26653         0.0150     0.2000     2.00       5.00       25.00      OUTLET
SC_26654         0.0150     0.2000     2.00       5.00       25.00      OUTLET
SC_26655         0.0150     0.2000     2.00       5.00       25.00      OUTLET
SC_26656         0.0150     0.2000     2.00       5.00       25.00      OUTLET
SC_26657         0.0150     0.2000     2.00       5.00       25.00      OUTLET
SC_26658         0.0150     0.2000     2.00       5.00       25.00      OUTLET
SC_26664         0.0150     0.2000     2.00       5.00       25.00      OUTLET
SC_26888         0.0150     0.2000     2.00       5.00       25.00      OUTLET
SC_26889         0.0150     0.2000     2.00       5.00       25.00      OUTLET
SC_26890         0.0150     0.2000     2.00       5.00       25.00      OUTLET
SC_26891         0.0150     0.2000     2.00       5.00       25.00      OUTLET
SC_26892         0.0150     0.2000     2.00       5.00       25.00      OUTLET
SC_26893         0.0150     0.2000     2.00       5.00       25.00      OUTLET
SC_26894         0.0150     0.2000     2.00       5.00       25.00      OUTLET
SC_26895         0.0150     0.2000     2.00       5.00       25.00      OUTLET
SC_26896         0.0150     0.2000     2.00       5.00       25.00      OUTLET
SC_26897         0.0150     0.2000     2.00       5.00       25.00      OUTLET
SC_26898         0.0150     0.2000     2.00       5.00       25.00      OUTLET
SC_26899         0.0150     0.2000     2.00       5.00       25.00      OUTLET
SC_26900         0.0150     0.2000     2.00       5.00       25.00      OUTLET
SC_26901         0.0150     0.2000     2.00       5.00       25.00      OUTLET
SC_26902         0.0150     0.2000     2.00       5.00       25.00      OUTLET
SC_26903         0.0150     0.2000     2.00       5.00       25.00      OUTLET
SC_26904         0.0150     0.2000     2.00       5.00       25.00      OUTLET
SC_26905         0.0150     0.2000     2.00       5.00       25.00      OUTLET
SC_26906         0.0150     0.2000     2.00       5.00       25.00      OUTLET
SC_26907         0.0150     0.2000     2.00       5.00       25.00      OUTLET
SC_26908         0.0150     0.2000     2.00       5.00       25.00      OUTLET
SC_26909         0.0150     0.2000     2.00       5.00       25.00      OUTLET
SC_26910         0.0150     0.2000     2.00       5.00       25.00      OUTLET
SC_26911         0.0150     0.2000     2.00       5.00       25.00      OUTLET
SC_26912         0.0150     0.2000     2.00       5.00       25.00      OUTLET
SC_26913         0.0150     0.2000     2.00       5.00       25.00      OUTLET
SC_26914         0.0150     0.2000     2.00       5.00       25.00      OUTLET
SC_26915         0.0150     0.2000     2.00       5.00       25.00      OUTLET
SC_26916         0.0150     0.2000     2.00       5.00       25.00      OUTLET
SC_26917         0.0150     0.2000     2.00       5.00       25.00      OUTLET
SC_26918         0.0150     0.2000     2.00       5.00       25.00      OUTLET
SC_26919         0.0150     0.2000     2.00       5.00       25.00      OUTLET
SC_26920         0.0150     0.2000     2.00       5.00       25.00      OUTLET
SC_26921         0.0150     0.2000     2.00       5.00       25.00      OUTLET
SC_26922         0.0150     0.2000     2.00       5.00       25.00      OUTLET
SC_26923         0.0150     0.2000     2.00       5.00       25.00      OUTLET
SC_26924         0.0150     0.2000     2.00       5.00       25.00      OUTLET
SC_26925         0.0150     0.2000     2.00       5.00       25.00      OUTLET
SC_26926         0.0150     0.2000     2.00       5.00       25.00      OUTLET
SC_26927         0.0150     0.2000     2.00       5.00       25.00      OUTLET
SC_26928         0.0150     0.2000     2.00       5.00       25.00      OUTLET
SC_26929         0.0150     0.2000     2.00       5.00       25.00      OUTLET
SC_26930         0.0150     0.2000     2.00       5.00       25.00      OUTLET
SC_26931         0.0150     0.2000     2.00       5.00       25.00      OUTLET
SC_26932         0.0150     0.2000     2.00       5.00       25.00      OUTLET
SC_26933         0.0150     0.2000     2.00       5.00       25.00      OUTLET
SC_26934         0.0150     0.2000     2.00       5.00       25.00      OUTLET
SC_26939         0.0150     0.2000     2.00       5.00       25.00      OUTLET
SC_26940         0.0150     0.2000     2.00       5.00       25.00      OUTLET
SC_26941         0.0150     0.2000     2.00       5.00       25.00      OUTLET
SC_27163         0.0150     0.2000     2.00       5.00       25.00      OUTLET
SC_27164         0.0150     0.2000     2.00       5.00       25.00      OUTLET
SC_27165         0.0150     0.2000     2.00       5.00       25.00      OUTLET
SC_27166         0.0150     0.2000     2.00       5.00       25.00      OUTLET
SC_27167         0.0150     0.2000     2.00       5.00       25.00      OUTLET
SC_27168         0.0150     0.2000     2.00       5.00       25.00      OUTLET
SC_27169         0.0150     0.2000     2.00       5.00       25.00      OUTLET
SC_27170         0.0150     0.2000     2.00       5.00       25.00      OUTLET
SC_27171         0.0150     0.2000     2.00       5.00       25.00      OUTLET
SC_27172         0.0150     0.2000     2.00       5.00       25.00      OUTLET
SC_27173         0.0150     0.2000     2.00       5.00       25.00      OUTLET
SC_27174         0.0150     0.2000     2.00       5.00       25.00      OUTLET
SC_27175         0.0150     0.2000     2.00       5.00       25.00      OUTLET
SC_27176         0.0150     0.2000     2.00       5.00       25.00      OUTLET
SC_27177         0.0150     0.2000     2.00       5.00       25.00      OUTLET
SC_27178         0.0150     0.2000     2.00       5.00       25.00      OUTLET
SC_27179         0.0150     0.2000     2.00       5.00       25.00      OUTLET
SC_27180         0.0150     0.2000     2.00       5.00       25.00      OUTLET
SC_27181         0.0150     0.2000     2.00       5.00       25.00      OUTLET
SC_27182         0.0150     0.2000     2.00       5.00       25.00      OUTLET
SC_27183         0.0150     0.2000     2.00       5.00       25.00      OUTLET
SC_27184         0.0150     0.2000     2.00       5.00       25.00      OUTLET
SC_27185         0.0150     0.2000     2.00       5.00       25.00      OUTLET
SC_27186         0.0150     0.2000     2.00       5.00       25.00      OUTLET
SC_27187         0.0150     0.2000     2.00       5.00       25.00      OUTLET
SC_27188         0.0150     0.2000     2.00       5.00       25.00      OUTLET
SC_27189         0.0150     0.2000     2.00       5.00       25.00      OUTLET
SC_27190         0.0150     0.2000     2.00       5.00       25.00      OUTLET
SC_27191         0.0150     0.2000     2.00       5.00       25.00      OUTLET
SC_27192         0.0150     0.2000     2.00       5.00       25.00      OUTLET
SC_27193         0.0150     0.2000     2.00       5.00       25.00      OUTLET
SC_27194         0.0150     0.2000     2.00       5.00       25.00      OUTLET
SC_27195         0.0150     0.2000     2.00       5.00       25.00      OUTLET
SC_27196         0.0150     0.2000     2.00       5.00       25.00      OUTLET
SC_27197         0.0150     0.2000     2.00       5.00       25.00      OUTLET
SC_27198         0.0150     0.2000     2.00       5.00       25.00      OUTLET
SC_27199         0.0150     0.2000     2.00       5.00       25.00      OUTLET
SC_27200         0.0150     0.2000     2.00       5.00       25.00      OUTLET
SC_27201         0.0150     0.2000     2.00       5.00       25.00      OUTLET
SC_27202         0.0150     0.2000     2.00       5.00       25.00      OUTLET
SC_27203         0.0150     0.2000     2.00       5.00       25.00      OUTLET
SC_27204         0.0150     0.2000     2.00       5.00       25.00      OUTLET
SC_27205         0.0150     0.2000     2.00       5.00       25.00      OUTLET
SC_27206         0.0150     0.2000     2.00       5.00       25.00      OUTLET
SC_27207         0.0150     0.2000     2.00       5.00       25.00      OUTLET
SC_27208         0.0150     0.2000     2.00       5.00       25.00      OUTLET
SC_27209         0.0150     0.2000     2.00       5.00       25.00      OUTLET
SC_27212         0.0150     0.2000     2.00       5.00       25.00      OUTLET
SC_27213         0.0150     0.2000     2.00       5.00       25.00      OUTLET
SC_27214         0.0150     0.2000     2.00       5.00       25.00      OUTLET
SC_27215         0.0150     0.2000     2.00       5.00       25.00      OUTLET
SC_27216         0.0150     0.2000     2.00       5.00       25.00      OUTLET
SC_27217         0.0150     0.2000     2.00       5.00       25.00      OUTLET
SC_27436         0.0150     0.2000     2.00       5.00       25.00      OUTLET
SC_27437         0.0150     0.2000     2.00       5.00       25.00      OUTLET
SC_27438         0.0150     0.2000     2.00       5.00       25.00      OUTLET
SC_27439         0.0150     0.2000     2.00       5.00       25.00      OUTLET
SC_27440         0.0150     0.2000     2.00       5.00       25.00      OUTLET
SC_27441         0.0150     0.2000     2.00       5.00       25.00      OUTLET
SC_27442         0.0150     0.2000     2.00       5.00       25.00      OUTLET
SC_27443         0.0150     0.2000     2.00       5.00       25.00      OUTLET
SC_27444         0.0150     0.2000     2.00       5.00       25.00      OUTLET
SC_27445         0.0150     0.2000     2.00       5.00       25.00      OUTLET
SC_27446         0.0150     0.2000     2.00       5.00       25.00      OUTLET
SC_27447         0.0150     0.2000     2.00       5.00       25.00      OUTLET
SC_27448         0.0150     0.2000     2.00       5.00       25.00      OUTLET
SC_27449         0.0150     0.2000     2.00       5.00       25.00      OUTLET
SC_27450         0.0150     0.2000     2.00       5.00       25.00      OUTLET
SC_27451         0.0150     0.2000     2.00       5.00       25.00      OUTLET
SC_27452         0.0150     0.2000     2.00       5.00       25.00      OUTLET
SC_27453         0.0150     0.2000     2.00       5.00       25.00      OUTLET
SC_27454         0.0150     0.2000     2.00       5.00       25.00      OUTLET
SC_27455         0.0150     0.2000     2.00       5.00       25.00      OUTLET
SC_27456         0.0150     0.2000     2.00       5.00       25.00      OUTLET
SC_27457         0.0150     0.2000     2.00       5.00       25.00      OUTLET
SC_27458         0.0150     0.2000     2.00       5.00       25.00      OUTLET
SC_27459         0.0150     0.2000     2.00       5.00       25.00      OUTLET
SC_27460         0.0150     0.2000     2.00       5.00       25.00      OUTLET
SC_27461         0.0150     0.2000     2.00       5.00       25.00      OUTLET
SC_27462         0.0150     0.2000     2.00       5.00       25.00      OUTLET
SC_27463         0.0150     0.2000     2.00       5.00       25.00      OUTLET
SC_27464         0.0150     0.2000     2.00       5.00       25.00      OUTLET
SC_27465         0.0150     0.2000     2.00       5.00       25.00      OUTLET
SC_27466         0.0150     0.2000     2.00       5.00       25.00      OUTLET
SC_27467         0.0150     0.2000     2.00       5.00       25.00      OUTLET
SC_27468         0.0150     0.2000     2.00       5.00       25.00      OUTLET
SC_27469         0.0150     0.2000     2.00       5.00       25.00      OUTLET
SC_27470         0.0150     0.2000     2.00       5.00       25.00      OUTLET
SC_27471         0.0150     0.2000     2.00       5.00       25.00      OUTLET
SC_27472         0.0150     0.2000     2.00       5.00       25.00      OUTLET
SC_27473         0.0150     0.2000     2.00       5.00       25.00      OUTLET
SC_27474         0.0150     0.2000     2.00       5.00       25.00      OUTLET
SC_27475         0.0150     0.2000     2.00       5.00       25.00      OUTLET
SC_27476         0.0150     0.2000     2.00       5.00       25.00      OUTLET
SC_27477         0.0150     0.2000     2.00       5.00       25.00      OUTLET
SC_27478         0.0150     0.2000     2.00       5.00       25.00      OUTLET
SC_27479         0.0150     0.2000     2.00       5.00       25.00      OUTLET
SC_27480         0.0150     0.2000     2.00       5.00       25.00      OUTLET
SC_27481         0.0150     0.2000     2.00       5.00       25.00      OUTLET
SC_27482         0.0150     0.2000     2.00       5.00       25.00      OUTLET
SC_27483         0.0150     0.2000     2.00       5.00       25.00      OUTLET
SC_27484         0.0150     0.2000     2.00       5.00       25.00      OUTLET
SC_27485         0.0150     0.2000     2.00       5.00       25.00      OUTLET
SC_27486         0.0150     0.2000     2.00       5.00       25.00      OUTLET
SC_27487         0.0150     0.2000     2.00       5.00       25.00      OUTLET
SC_27488         0.0150     0.2000     2.00       5.00       25.00      OUTLET
SC_27489         0.0150     0.2000     2.00       5.00       25.00      OUTLET
SC_27490         0.0150     0.2000     2.00       5.00       25.00      OUTLET
SC_27709         0.0150     0.2000     2.00       5.00       25.00      OUTLET
SC_27710         0.0150     0.2000     2.00       5.00       25.00      OUTLET
SC_27711         0.0150     0.2000     2.00       5.00       25.00      OUTLET
SC_27712         0.0150     0.2000     2.00       5.00       25.00      OUTLET
SC_27713         0.0150     0.2000     2.00       5.00       25.00      OUTLET
SC_27714         0.0150     0.2000     2.00       5.00       25.00      OUTLET
SC_27715         0.0150     0.2000     2.00       5.00       25.00      OUTLET
SC_27716         0.0150     0.2000     2.00       5.00       25.00      OUTLET
SC_27717         0.0150     0.2000     2.00       5.00       25.00      OUTLET
SC_27718         0.0150     0.2000     2.00       5.00       25.00      OUTLET
SC_27719         0.0150     0.2000     2.00       5.00       25.00      OUTLET
SC_27720         0.0150     0.2000     2.00       5.00       25.00      OUTLET
SC_27721         0.0150     0.2000     2.00       5.00       25.00      OUTLET
SC_27722         0.0150     0.2000     2.00       5.00       25.00      OUTLET
SC_27723         0.0150     0.2000     2.00       5.00       25.00      OUTLET
SC_27724         0.0150     0.2000     2.00       5.00       25.00      OUTLET
SC_27725         0.0150     0.2000     2.00       5.00       25.00      OUTLET
SC_27726         0.0150     0.2000     2.00       5.00       25.00      OUTLET
SC_27727         0.0150     0.2000     2.00       5.00       25.00      OUTLET
SC_27728         0.0150     0.2000     2.00       5.00       25.00      OUTLET
SC_27729         0.0150     0.2000     2.00       5.00       25.00      OUTLET
SC_27730         0.0150     0.2000     2.00       5.00       25.00      OUTLET
SC_27731         0.0150     0.2000     2.00       5.00       25.00      OUTLET
SC_27732         0.0150     0.2000     2.00       5.00       25.00      OUTLET
SC_27733         0.0150     0.2000     2.00       5.00       25.00      OUTLET
SC_27734         0.0150     0.2000     2.00       5.00       25.00      OUTLET
SC_27735         0.0150     0.2000     2.00       5.00       25.00      OUTLET
SC_27736         0.0150     0.2000     2.00       5.00       25.00      OUTLET
SC_27737         0.0150     0.2000     2.00       5.00       25.00      OUTLET
SC_27738         0.0150     0.2000     2.00       5.00       25.00      OUTLET
SC_27739         0.0150     0.2000     2.00       5.00       25.00      OUTLET
SC_27740         0.0150     0.2000     2.00       5.00       25.00      OUTLET
SC_27741         0.0150     0.2000     2.00       5.00       25.00      OUTLET
SC_27742         0.0150     0.2000     2.00       5.00       25.00      OUTLET
SC_27743         0.0150     0.2000     2.00       5.00       25.00      OUTLET
SC_27744         0.0150     0.2000     2.00       5.00       25.00      OUTLET
SC_27745         0.0150     0.2000     2.00       5.00       25.00      OUTLET
SC_27746         0.0150     0.2000     2.00       5.00       25.00      OUTLET
SC_27747         0.0150     0.2000     2.00       5.00       25.00      OUTLET
SC_27748         0.0150     0.2000     2.00       5.00       25.00      OUTLET
SC_27749         0.0150     0.2000     2.00       5.00       25.00      OUTLET
SC_27750         0.0150     0.2000     2.00       5.00       25.00      OUTLET
SC_27751         0.0150     0.2000     2.00       5.00       25.00      OUTLET
SC_27752         0.0150     0.2000     2.00       5.00       25.00      OUTLET
SC_27753         0.0150     0.2000     2.00       5.00       25.00      OUTLET
SC_27754         0.0150     0.2000     2.00       5.00       25.00      OUTLET
SC_27755         0.0150     0.2000     2.00       5.00       25.00      OUTLET
SC_27756         0.0150     0.2000     2.00       5.00       25.00      OUTLET
SC_27757         0.0150     0.2000     2.00       5.00       25.00      OUTLET
SC_27758         0.0150     0.2000     2.00       5.00       25.00      OUTLET
SC_27759         0.0150     0.2000     2.00       5.00       25.00      OUTLET
SC_27760         0.0150     0.2000     2.00       5.00       25.00      OUTLET
SC_27761         0.0150     0.2000     2.00       5.00       25.00      OUTLET
SC_27981         0.0150     0.2000     2.00       5.00       25.00      OUTLET
SC_27982         0.0150     0.2000     2.00       5.00       25.00      OUTLET
SC_27983         0.0150     0.2000     2.00       5.00       25.00      OUTLET
SC_27984         0.0150     0.2000     2.00       5.00       25.00      OUTLET
SC_27985         0.0150     0.2000     2.00       5.00       25.00      OUTLET
SC_27986         0.0150     0.2000     2.00       5.00       25.00      OUTLET
SC_27987         0.0150     0.2000     2.00       5.00       25.00      OUTLET
SC_27988         0.0150     0.2000     2.00       5.00       25.00      OUTLET
SC_27989         0.0150     0.2000     2.00       5.00       25.00      OUTLET
SC_27990         0.0150     0.2000     2.00       5.00       25.00      OUTLET
SC_27991         0.0150     0.2000     2.00       5.00       25.00      OUTLET
SC_27992         0.0150     0.2000     2.00       5.00       25.00      OUTLET
SC_27993         0.0150     0.2000     2.00       5.00       25.00      OUTLET
SC_27994         0.0150     0.2000     2.00       5.00       25.00      OUTLET
SC_27995         0.0150     0.2000     2.00       5.00       25.00      OUTLET
SC_27996         0.0150     0.2000     2.00       5.00       25.00      OUTLET
SC_27997         0.0150     0.2000     2.00       5.00       25.00      OUTLET
SC_27998         0.0150     0.2000     2.00       5.00       25.00      OUTLET
SC_27999         0.0150     0.2000     2.00       5.00       25.00      OUTLET
SC_28000         0.0150     0.2000     2.00       5.00       25.00      OUTLET
SC_28001         0.0150     0.2000     2.00       5.00       25.00      OUTLET
SC_28002         0.0150     0.2000     2.00       5.00       25.00      OUTLET
SC_28003         0.0150     0.2000     2.00       5.00       25.00      OUTLET
SC_28004         0.0150     0.2000     2.00       5.00       25.00      OUTLET
SC_28005         0.0150     0.2000     2.00       5.00       25.00      OUTLET
SC_28006         0.0150     0.2000     2.00       5.00       25.00      OUTLET
SC_28007         0.0150     0.2000     2.00       5.00       25.00      OUTLET
SC_28008         0.0150     0.2000     2.00       5.00       25.00      OUTLET
SC_28009         0.0150     0.2000     2.00       5.00       25.00      OUTLET
SC_28010         0.0150     0.2000     2.00       5.00       25.00      OUTLET
SC_28011         0.0150     0.2000     2.00       5.00       25.00      OUTLET
SC_28012         0.0150     0.2000     2.00       5.00       25.00      OUTLET
SC_28013         0.0150     0.2000     2.00       5.00       25.00      OUTLET
SC_28014         0.0150     0.2000     2.00       5.00       25.00      OUTLET
SC_28015         0.0150     0.2000     2.00       5.00       25.00      OUTLET
SC_28016         0.0150     0.2000     2.00       5.00       25.00      OUTLET
SC_28017         0.0150     0.2000     2.00       5.00       25.00      OUTLET
SC_28018         0.0150     0.2000     2.00       5.00       25.00      OUTLET
SC_28019         0.0150     0.2000     2.00       5.00       25.00      OUTLET
SC_28020         0.0150     0.2000     2.00       5.00       25.00      OUTLET
SC_28021         0.0150     0.2000     2.00       5.00       25.00      OUTLET
SC_28022         0.0150     0.2000     2.00       5.00       25.00      OUTLET
SC_28023         0.0150     0.2000     2.00       5.00       25.00      OUTLET
SC_28024         0.0150     0.2000     2.00       5.00       25.00      OUTLET
SC_28025         0.0150     0.2000     2.00       5.00       25.00      OUTLET
SC_28026         0.0150     0.2000     2.00       5.00       25.00      OUTLET
SC_28027         0.0150     0.2000     2.00       5.00       25.00      OUTLET
SC_28028         0.0150     0.2000     2.00       5.00       25.00      OUTLET
SC_28029         0.0150     0.2000     2.00       5.00       25.00      OUTLET
SC_28030         0.0150     0.2000     2.00       5.00       25.00      OUTLET
SC_28031         0.0150     0.2000     2.00       5.00       25.00      OUTLET
SC_28032         0.0150     0.2000     2.00       5.00       25.00      OUTLET
SC_28253         0.0150     0.2000     2.00       5.00       25.00      OUTLET
SC_28254         0.0150     0.2000     2.00       5.00       25.00      OUTLET
SC_28255         0.0150     0.2000     2.00       5.00       25.00      OUTLET
SC_28256         0.0150     0.2000     2.00       5.00       25.00      OUTLET
SC_28257         0.0150     0.2000     2.00       5.00       25.00      OUTLET
SC_28258         0.0150     0.2000     2.00       5.00       25.00      OUTLET
SC_28259         0.0150     0.2000     2.00       5.00       25.00      OUTLET
SC_28260         0.0150     0.2000     2.00       5.00       25.00      OUTLET
SC_28261         0.0150     0.2000     2.00       5.00       25.00      OUTLET
SC_28262         0.0150     0.2000     2.00       5.00       25.00      OUTLET
SC_28263         0.0150     0.2000     2.00       5.00       25.00      OUTLET
SC_28264         0.0150     0.2000     2.00       5.00       25.00      OUTLET
SC_28265         0.0150     0.2000     2.00       5.00       25.00      OUTLET
SC_28266         0.0150     0.2000     2.00       5.00       25.00      OUTLET
SC_28267         0.0150     0.2000     2.00       5.00       25.00      OUTLET
SC_28268         0.0150     0.2000     2.00       5.00       25.00      OUTLET
SC_28269         0.0150     0.2000     2.00       5.00       25.00      OUTLET
SC_28270         0.0150     0.2000     2.00       5.00       25.00      OUTLET
SC_28271         0.0150     0.2000     2.00       5.00       25.00      OUTLET
SC_28272         0.0150     0.2000     2.00       5.00       25.00      OUTLET
SC_28273         0.0150     0.2000     2.00       5.00       25.00      OUTLET
SC_28274         0.0150     0.2000     2.00       5.00       25.00      OUTLET
SC_28275         0.0150     0.2000     2.00       5.00       25.00      OUTLET
SC_28276         0.0150     0.2000     2.00       5.00       25.00      OUTLET
SC_28277         0.0150     0.2000     2.00       5.00       25.00      OUTLET
SC_28278         0.0150     0.2000     2.00       5.00       25.00      OUTLET
SC_28279         0.0150     0.2000     2.00       5.00       25.00      OUTLET
SC_28280         0.0150     0.2000     2.00       5.00       25.00      OUTLET
SC_28281         0.0150     0.2000     2.00       5.00       25.00      OUTLET
SC_28282         0.0150     0.2000     2.00       5.00       25.00      OUTLET
SC_28283         0.0150     0.2000     2.00       5.00       25.00      OUTLET
SC_28284         0.0150     0.2000     2.00       5.00       25.00      OUTLET
SC_28285         0.0150     0.2000     2.00       5.00       25.00      OUTLET
SC_28286         0.0150     0.2000     2.00       5.00       25.00      OUTLET
SC_28287         0.0150     0.2000     2.00       5.00       25.00      OUTLET
SC_28288         0.0150     0.2000     2.00       5.00       25.00      OUTLET
SC_28289         0.0150     0.2000     2.00       5.00       25.00      OUTLET
SC_28290         0.0150     0.2000     2.00       5.00       25.00      OUTLET
SC_28291         0.0150     0.2000     2.00       5.00       25.00      OUTLET
SC_28292         0.0150     0.2000     2.00       5.00       25.00      OUTLET
SC_28293         0.0150     0.2000     2.00       5.00       25.00      OUTLET
SC_28294         0.0150     0.2000     2.00       5.00       25.00      OUTLET
SC_28295         0.0150     0.2000     2.00       5.00       25.00      OUTLET
SC_28296         0.0150     0.2000     2.00       5.00       25.00      OUTLET
SC_28297         0.0150     0.2000     2.00       5.00       25.00      OUTLET
SC_28298         0.0150     0.2000     2.00       5.00       25.00      OUTLET
SC_28299         0.0150     0.2000     2.00       5.00       25.00      OUTLET
SC_28300         0.0150     0.2000     2.00       5.00       25.00      OUTLET
SC_28301         0.0150     0.2000     2.00       5.00       25.00      OUTLET
SC_28302         0.0150     0.2000     2.00       5.00       25.00      OUTLET
SC_28303         0.0150     0.2000     2.00       5.00       25.00      OUTLET
SC_28304         0.0150     0.2000     2.00       5.00       25.00      OUTLET
SC_28305         0.0150     0.2000     2.00       5.00       25.00      OUTLET
SC_28331         0.0150     0.2000     2.00       5.00       25.00      OUTLET
SC_28526         0.0150     0.2000     2.00       5.00       25.00      OUTLET
SC_28527         0.0150     0.2000     2.00       5.00       25.00      OUTLET
SC_28528         0.0150     0.2000     2.00       5.00       25.00      OUTLET
SC_28529         0.0150     0.2000     2.00       5.00       25.00      OUTLET
SC_28530         0.0150     0.2000     2.00       5.00       25.00      OUTLET
SC_28531         0.0150     0.2000     2.00       5.00       25.00      OUTLET
SC_28532         0.0150     0.2000     2.00       5.00       25.00      OUTLET
SC_28533         0.0150     0.2000     2.00       5.00       25.00      OUTLET
SC_28534         0.0150     0.2000     2.00       5.00       25.00      OUTLET
SC_28535         0.0150     0.2000     2.00       5.00       25.00      OUTLET
SC_28536         0.0150     0.2000     2.00       5.00       25.00      OUTLET
SC_28537         0.0150     0.2000     2.00       5.00       25.00      OUTLET
SC_28538         0.0150     0.2000     2.00       5.00       25.00      OUTLET
SC_28539         0.0150     0.2000     2.00       5.00       25.00      OUTLET
SC_28540         0.0150     0.2000     2.00       5.00       25.00      OUTLET
SC_28541         0.0150     0.2000     2.00       5.00       25.00      OUTLET
SC_28542         0.0150     0.2000     2.00       5.00       25.00      OUTLET
SC_28543         0.0150     0.2000     2.00       5.00       25.00      OUTLET
SC_28544         0.0150     0.2000     2.00       5.00       25.00      OUTLET
SC_28545         0.0150     0.2000     2.00       5.00       25.00      OUTLET
SC_28546         0.0150     0.2000     2.00       5.00       25.00      OUTLET
SC_28547         0.0150     0.2000     2.00       5.00       25.00      OUTLET
SC_28548         0.0150     0.2000     2.00       5.00       25.00      OUTLET
SC_28549         0.0150     0.2000     2.00       5.00       25.00      OUTLET
SC_28550         0.0150     0.2000     2.00       5.00       25.00      OUTLET
SC_28551         0.0150     0.2000     2.00       5.00       25.00      OUTLET
SC_28552         0.0150     0.2000     2.00       5.00       25.00      OUTLET
SC_28553         0.0150     0.2000     2.00       5.00       25.00      OUTLET
SC_28554         0.0150     0.2000     2.00       5.00       25.00      OUTLET
SC_28555         0.0150     0.2000     2.00       5.00       25.00      OUTLET
SC_28556         0.0150     0.2000     2.00       5.00       25.00      OUTLET
SC_28557         0.0150     0.2000     2.00       5.00       25.00      OUTLET
SC_28558         0.0150     0.2000     2.00       5.00       25.00      OUTLET
SC_28559         0.0150     0.2000     2.00       5.00       25.00      OUTLET
SC_28560         0.0150     0.2000     2.00       5.00       25.00      OUTLET
SC_28561         0.0150     0.2000     2.00       5.00       25.00      OUTLET
SC_28562         0.0150     0.2000     2.00       5.00       25.00      OUTLET
SC_28563         0.0150     0.2000     2.00       5.00       25.00      OUTLET
SC_28564         0.0150     0.2000     2.00       5.00       25.00      OUTLET
SC_28565         0.0150     0.2000     2.00       5.00       25.00      OUTLET
SC_28566         0.0150     0.2000     2.00       5.00       25.00      OUTLET
SC_28567         0.0150     0.2000     2.00       5.00       25.00      OUTLET
SC_28568         0.0150     0.2000     2.00       5.00       25.00      OUTLET
SC_28569         0.0150     0.2000     2.00       5.00       25.00      OUTLET
SC_28570         0.0150     0.2000     2.00       5.00       25.00      OUTLET
SC_28571         0.0150     0.2000     2.00       5.00       25.00      OUTLET
SC_28572         0.0150     0.2000     2.00       5.00       25.00      OUTLET
SC_28573         0.0150     0.2000     2.00       5.00       25.00      OUTLET
SC_28574         0.0150     0.2000     2.00       5.00       25.00      OUTLET
SC_28575         0.0150     0.2000     2.00       5.00       25.00      OUTLET
SC_28576         0.0150     0.2000     2.00       5.00       25.00      OUTLET
SC_28577         0.0150     0.2000     2.00       5.00       25.00      OUTLET
SC_28578         0.0150     0.2000     2.00       5.00       25.00      OUTLET
SC_28584         0.0150     0.2000     2.00       5.00       25.00      OUTLET
SC_28602         0.0150     0.2000     2.00       5.00       25.00      OUTLET
SC_28603         0.0150     0.2000     2.00       5.00       25.00      OUTLET
SC_28801         0.0150     0.2000     2.00       5.00       25.00      OUTLET
SC_28802         0.0150     0.2000     2.00       5.00       25.00      OUTLET
SC_28803         0.0150     0.2000     2.00       5.00       25.00      OUTLET
SC_28804         0.0150     0.2000     2.00       5.00       25.00      OUTLET
SC_28805         0.0150     0.2000     2.00       5.00       25.00      OUTLET
SC_28806         0.0150     0.2000     2.00       5.00       25.00      OUTLET
SC_28807         0.0150     0.2000     2.00       5.00       25.00      OUTLET
SC_28808         0.0150     0.2000     2.00       5.00       25.00      OUTLET
SC_28809         0.0150     0.2000     2.00       5.00       25.00      OUTLET
SC_28810         0.0150     0.2000     2.00       5.00       25.00      OUTLET
SC_28811         0.0150     0.2000     2.00       5.00       25.00      OUTLET
SC_28812         0.0150     0.2000     2.00       5.00       25.00      OUTLET
SC_28813         0.0150     0.2000     2.00       5.00       25.00      OUTLET
SC_28814         0.0150     0.2000     2.00       5.00       25.00      OUTLET
SC_28815         0.0150     0.2000     2.00       5.00       25.00      OUTLET
SC_28816         0.0150     0.2000     2.00       5.00       25.00      OUTLET
SC_28817         0.0150     0.2000     2.00       5.00       25.00      OUTLET
SC_28818         0.0150     0.2000     2.00       5.00       25.00      OUTLET
SC_28819         0.0150     0.2000     2.00       5.00       25.00      OUTLET
SC_28820         0.0150     0.2000     2.00       5.00       25.00      OUTLET
SC_28821         0.0150     0.2000     2.00       5.00       25.00      OUTLET
SC_28822         0.0150     0.2000     2.00       5.00       25.00      OUTLET
SC_28823         0.0150     0.2000     2.00       5.00       25.00      OUTLET
SC_28824         0.0150     0.2000     2.00       5.00       25.00      OUTLET
SC_28825         0.0150     0.2000     2.00       5.00       25.00      OUTLET
SC_28826         0.0150     0.2000     2.00       5.00       25.00      OUTLET
SC_28827         0.0150     0.2000     2.00       5.00       25.00      OUTLET
SC_28828         0.0150     0.2000     2.00       5.00       25.00      OUTLET
SC_28829         0.0150     0.2000     2.00       5.00       25.00      OUTLET
SC_28830         0.0150     0.2000     2.00       5.00       25.00      OUTLET
SC_28831         0.0150     0.2000     2.00       5.00       25.00      OUTLET
SC_28832         0.0150     0.2000     2.00       5.00       25.00      OUTLET
SC_28833         0.0150     0.2000     2.00       5.00       25.00      OUTLET
SC_28834         0.0150     0.2000     2.00       5.00       25.00      OUTLET
SC_28835         0.0150     0.2000     2.00       5.00       25.00      OUTLET
SC_28836         0.0150     0.2000     2.00       5.00       25.00      OUTLET
SC_28837         0.0150     0.2000     2.00       5.00       25.00      OUTLET
SC_28838         0.0150     0.2000     2.00       5.00       25.00      OUTLET
SC_28839         0.0150     0.2000     2.00       5.00       25.00      OUTLET
SC_28840         0.0150     0.2000     2.00       5.00       25.00      OUTLET
SC_28841         0.0150     0.2000     2.00       5.00       25.00      OUTLET
SC_28842         0.0150     0.2000     2.00       5.00       25.00      OUTLET
SC_28843         0.0150     0.2000     2.00       5.00       25.00      OUTLET
SC_28844         0.0150     0.2000     2.00       5.00       25.00      OUTLET
SC_28845         0.0150     0.2000     2.00       5.00       25.00      OUTLET
SC_28846         0.0150     0.2000     2.00       5.00       25.00      OUTLET
SC_28847         0.0150     0.2000     2.00       5.00       25.00      OUTLET
SC_28848         0.0150     0.2000     2.00       5.00       25.00      OUTLET
SC_28849         0.0150     0.2000     2.00       5.00       25.00      OUTLET
SC_28850         0.0150     0.2000     2.00       5.00       25.00      OUTLET
SC_28851         0.0150     0.2000     2.00       5.00       25.00      OUTLET
SC_28852         0.0150     0.2000     2.00       5.00       25.00      OUTLET
SC_28853         0.0150     0.2000     2.00       5.00       25.00      OUTLET
SC_28857         0.0150     0.2000     2.00       5.00       25.00      OUTLET
SC_28858         0.0150     0.2000     2.00       5.00       25.00      OUTLET
SC_28859         0.0150     0.2000     2.00       5.00       25.00      OUTLET
SC_28863         0.0150     0.2000     2.00       5.00       25.00      OUTLET
SC_28864         0.0150     0.2000     2.00       5.00       25.00      OUTLET
SC_28865         0.0150     0.2000     2.00       5.00       25.00      OUTLET
SC_28866         0.0150     0.2000     2.00       5.00       25.00      OUTLET
SC_28867         0.0150     0.2000     2.00       5.00       25.00      OUTLET
SC_28875         0.0150     0.2000     2.00       5.00       25.00      OUTLET
SC_28876         0.0150     0.2000     2.00       5.00       25.00      OUTLET
SC_28877         0.0150     0.2000     2.00       5.00       25.00      OUTLET
SC_29079         0.0150     0.2000     2.00       5.00       25.00      OUTLET
SC_29080         0.0150     0.2000     2.00       5.00       25.00      OUTLET
SC_29081         0.0150     0.2000     2.00       5.00       25.00      OUTLET
SC_29082         0.0150     0.2000     2.00       5.00       25.00      OUTLET
SC_29083         0.0150     0.2000     2.00       5.00       25.00      OUTLET
SC_29084         0.0150     0.2000     2.00       5.00       25.00      OUTLET
SC_29085         0.0150     0.2000     2.00       5.00       25.00      OUTLET
SC_29086         0.0150     0.2000     2.00       5.00       25.00      OUTLET
SC_29087         0.0150     0.2000     2.00       5.00       25.00      OUTLET
SC_29088         0.0150     0.2000     2.00       5.00       25.00      OUTLET
SC_29089         0.0150     0.2000     2.00       5.00       25.00      OUTLET
SC_29090         0.0150     0.2000     2.00       5.00       25.00      OUTLET
SC_29091         0.0150     0.2000     2.00       5.00       25.00      OUTLET
SC_29092         0.0150     0.2000     2.00       5.00       25.00      OUTLET
SC_29093         0.0150     0.2000     2.00       5.00       25.00      OUTLET
SC_29094         0.0150     0.2000     2.00       5.00       25.00      OUTLET
SC_29095         0.0150     0.2000     2.00       5.00       25.00      OUTLET
SC_29096         0.0150     0.2000     2.00       5.00       25.00      OUTLET
SC_29097         0.0150     0.2000     2.00       5.00       25.00      OUTLET
SC_29098         0.0150     0.2000     2.00       5.00       25.00      OUTLET
SC_29099         0.0150     0.2000     2.00       5.00       25.00      OUTLET
SC_29100         0.0150     0.2000     2.00       5.00       25.00      OUTLET
SC_29101         0.0150     0.2000     2.00       5.00       25.00      OUTLET
SC_29102         0.0150     0.2000     2.00       5.00       25.00      OUTLET
SC_29103         0.0150     0.2000     2.00       5.00       25.00      OUTLET
SC_29104         0.0150     0.2000     2.00       5.00       25.00      OUTLET
SC_29105         0.0150     0.2000     2.00       5.00       25.00      OUTLET
SC_29106         0.0150     0.2000     2.00       5.00       25.00      OUTLET
SC_29107         0.0150     0.2000     2.00       5.00       25.00      OUTLET
SC_29108         0.0150     0.2000     2.00       5.00       25.00      OUTLET
SC_29109         0.0150     0.2000     2.00       5.00       25.00      OUTLET
SC_29110         0.0150     0.2000     2.00       5.00       25.00      OUTLET
SC_29111         0.0150     0.2000     2.00       5.00       25.00      OUTLET
SC_29112         0.0150     0.2000     2.00       5.00       25.00      OUTLET
SC_29113         0.0150     0.2000     2.00       5.00       25.00      OUTLET
SC_29114         0.0150     0.2000     2.00       5.00       25.00      OUTLET
SC_29115         0.0150     0.2000     2.00       5.00       25.00      OUTLET
SC_29116         0.0150     0.2000     2.00       5.00       25.00      OUTLET
SC_29117         0.0150     0.2000     2.00       5.00       25.00      OUTLET
SC_29118         0.0150     0.2000     2.00       5.00       25.00      OUTLET
SC_29119         0.0150     0.2000     2.00       5.00       25.00      OUTLET
SC_29120         0.0150     0.2000     2.00       5.00       25.00      OUTLET
SC_29121         0.0150     0.2000     2.00       5.00       25.00      OUTLET
SC_29122         0.0150     0.2000     2.00       5.00       25.00      OUTLET
SC_29123         0.0150     0.2000     2.00       5.00       25.00      OUTLET
SC_29124         0.0150     0.2000     2.00       5.00       25.00      OUTLET
SC_29125         0.0150     0.2000     2.00       5.00       25.00      OUTLET
SC_29126         0.0150     0.2000     2.00       5.00       25.00      OUTLET
SC_29127         0.0150     0.2000     2.00       5.00       25.00      OUTLET
SC_29128         0.0150     0.2000     2.00       5.00       25.00      OUTLET
SC_29129         0.0150     0.2000     2.00       5.00       25.00      OUTLET
SC_29130         0.0150     0.2000     2.00       5.00       25.00      OUTLET
SC_29131         0.0150     0.2000     2.00       5.00       25.00      OUTLET
SC_29132         0.0150     0.2000     2.00       5.00       25.00      OUTLET
SC_29133         0.0150     0.2000     2.00       5.00       25.00      OUTLET
SC_29134         0.0150     0.2000     2.00       5.00       25.00      OUTLET
SC_29135         0.0150     0.2000     2.00       5.00       25.00      OUTLET
SC_29136         0.0150     0.2000     2.00       5.00       25.00      OUTLET
SC_29137         0.0150     0.2000     2.00       5.00       25.00      OUTLET
SC_29138         0.0150     0.2000     2.00       5.00       25.00      OUTLET
SC_29139         0.0150     0.2000     2.00       5.00       25.00      OUTLET
SC_29140         0.0150     0.2000     2.00       5.00       25.00      OUTLET
SC_29141         0.0150     0.2000     2.00       5.00       25.00      OUTLET
SC_29142         0.0150     0.2000     2.00       5.00       25.00      OUTLET
SC_29143         0.0150     0.2000     2.00       5.00       25.00      OUTLET
SC_29144         0.0150     0.2000     2.00       5.00       25.00      OUTLET
SC_29148         0.0150     0.2000     2.00       5.00       25.00      OUTLET
SC_29149         0.0150     0.2000     2.00       5.00       25.00      OUTLET
SC_29150         0.0150     0.2000     2.00       5.00       25.00      OUTLET
SC_29151         0.0150     0.2000     2.00       5.00       25.00      OUTLET
SC_29152         0.0150     0.2000     2.00       5.00       25.00      OUTLET
SC_29357         0.0150     0.2000     2.00       5.00       25.00      OUTLET
SC_29358         0.0150     0.2000     2.00       5.00       25.00      OUTLET
SC_29359         0.0150     0.2000     2.00       5.00       25.00      OUTLET
SC_29360         0.0150     0.2000     2.00       5.00       25.00      OUTLET
SC_29361         0.0150     0.2000     2.00       5.00       25.00      OUTLET
SC_29362         0.0150     0.2000     2.00       5.00       25.00      OUTLET
SC_29363         0.0150     0.2000     2.00       5.00       25.00      OUTLET
SC_29364         0.0150     0.2000     2.00       5.00       25.00      OUTLET
SC_29365         0.0150     0.2000     2.00       5.00       25.00      OUTLET
SC_29366         0.0150     0.2000     2.00       5.00       25.00      OUTLET
SC_29367         0.0150     0.2000     2.00       5.00       25.00      OUTLET
SC_29368         0.0150     0.2000     2.00       5.00       25.00      OUTLET
SC_29369         0.0150     0.2000     2.00       5.00       25.00      OUTLET
SC_29370         0.0150     0.2000     2.00       5.00       25.00      OUTLET
SC_29371         0.0150     0.2000     2.00       5.00       25.00      OUTLET
SC_29372         0.0150     0.2000     2.00       5.00       25.00      OUTLET
SC_29373         0.0150     0.2000     2.00       5.00       25.00      OUTLET
SC_29374         0.0150     0.2000     2.00       5.00       25.00      OUTLET
SC_29375         0.0150     0.2000     2.00       5.00       25.00      OUTLET
SC_29376         0.0150     0.2000     2.00       5.00       25.00      OUTLET
SC_29377         0.0150     0.2000     2.00       5.00       25.00      OUTLET
SC_29378         0.0150     0.2000     2.00       5.00       25.00      OUTLET
SC_29379         0.0150     0.2000     2.00       5.00       25.00      OUTLET
SC_29380         0.0150     0.2000     2.00       5.00       25.00      OUTLET
SC_29381         0.0150     0.2000     2.00       5.00       25.00      OUTLET
SC_29382         0.0150     0.2000     2.00       5.00       25.00      OUTLET
SC_29383         0.0150     0.2000     2.00       5.00       25.00      OUTLET
SC_29384         0.0150     0.2000     2.00       5.00       25.00      OUTLET
SC_29385         0.0150     0.2000     2.00       5.00       25.00      OUTLET
SC_29386         0.0150     0.2000     2.00       5.00       25.00      OUTLET
SC_29387         0.0150     0.2000     2.00       5.00       25.00      OUTLET
SC_29388         0.0150     0.2000     2.00       5.00       25.00      OUTLET
SC_29389         0.0150     0.2000     2.00       5.00       25.00      OUTLET
SC_29390         0.0150     0.2000     2.00       5.00       25.00      OUTLET
SC_29391         0.0150     0.2000     2.00       5.00       25.00      OUTLET
SC_29392         0.0150     0.2000     2.00       5.00       25.00      OUTLET
SC_29393         0.0150     0.2000     2.00       5.00       25.00      OUTLET
SC_29394         0.0150     0.2000     2.00       5.00       25.00      OUTLET
SC_29395         0.0150     0.2000     2.00       5.00       25.00      OUTLET
SC_29396         0.0150     0.2000     2.00       5.00       25.00      OUTLET
SC_29397         0.0150     0.2000     2.00       5.00       25.00      OUTLET
SC_29398         0.0150     0.2000     2.00       5.00       25.00      OUTLET
SC_29399         0.0150     0.2000     2.00       5.00       25.00      OUTLET
SC_29400         0.0150     0.2000     2.00       5.00       25.00      OUTLET
SC_29401         0.0150     0.2000     2.00       5.00       25.00      OUTLET
SC_29402         0.0150     0.2000     2.00       5.00       25.00      OUTLET
SC_29403         0.0150     0.2000     2.00       5.00       25.00      OUTLET
SC_29404         0.0150     0.2000     2.00       5.00       25.00      OUTLET
SC_29405         0.0150     0.2000     2.00       5.00       25.00      OUTLET
SC_29406         0.0150     0.2000     2.00       5.00       25.00      OUTLET
SC_29407         0.0150     0.2000     2.00       5.00       25.00      OUTLET
SC_29408         0.0150     0.2000     2.00       5.00       25.00      OUTLET
SC_29409         0.0150     0.2000     2.00       5.00       25.00      OUTLET
SC_29410         0.0150     0.2000     2.00       5.00       25.00      OUTLET
SC_29411         0.0150     0.2000     2.00       5.00       25.00      OUTLET
SC_29412         0.0150     0.2000     2.00       5.00       25.00      OUTLET
SC_29413         0.0150     0.2000     2.00       5.00       25.00      OUTLET
SC_29414         0.0150     0.2000     2.00       5.00       25.00      OUTLET
SC_29415         0.0150     0.2000     2.00       5.00       25.00      OUTLET
SC_29416         0.0150     0.2000     2.00       5.00       25.00      OUTLET
SC_29417         0.0150     0.2000     2.00       5.00       25.00      OUTLET
SC_29418         0.0150     0.2000     2.00       5.00       25.00      OUTLET
SC_29419         0.0150     0.2000     2.00       5.00       25.00      OUTLET
SC_29420         0.0150     0.2000     2.00       5.00       25.00      OUTLET
SC_29421         0.0150     0.2000     2.00       5.00       25.00      OUTLET
SC_29423         0.0150     0.2000     2.00       5.00       25.00      OUTLET
SC_29424         0.0150     0.2000     2.00       5.00       25.00      OUTLET
SC_29425         0.0150     0.2000     2.00       5.00       25.00      OUTLET
SC_29426         0.0150     0.2000     2.00       5.00       25.00      OUTLET
SC_29427         0.0150     0.2000     2.00       5.00       25.00      OUTLET
SC_29428         0.0150     0.2000     2.00       5.00       25.00      OUTLET
SC_29638         0.0150     0.2000     2.00       5.00       25.00      OUTLET
SC_29639         0.0150     0.2000     2.00       5.00       25.00      OUTLET
SC_29640         0.0150     0.2000     2.00       5.00       25.00      OUTLET
SC_29641         0.0150     0.2000     2.00       5.00       25.00      OUTLET
SC_29642         0.0150     0.2000     2.00       5.00       25.00      OUTLET
SC_29643         0.0150     0.2000     2.00       5.00       25.00      OUTLET
SC_29644         0.0150     0.2000     2.00       5.00       25.00      OUTLET
SC_29645         0.0150     0.2000     2.00       5.00       25.00      OUTLET
SC_29646         0.0150     0.2000     2.00       5.00       25.00      OUTLET
SC_29647         0.0150     0.2000     2.00       5.00       25.00      OUTLET
SC_29648         0.0150     0.2000     2.00       5.00       25.00      OUTLET
SC_29649         0.0150     0.2000     2.00       5.00       25.00      OUTLET
SC_29650         0.0150     0.2000     2.00       5.00       25.00      OUTLET
SC_29651         0.0150     0.2000     2.00       5.00       25.00      OUTLET
SC_29652         0.0150     0.2000     2.00       5.00       25.00      OUTLET
SC_29653         0.0150     0.2000     2.00       5.00       25.00      OUTLET
SC_29654         0.0150     0.2000     2.00       5.00       25.00      OUTLET
SC_29655         0.0150     0.2000     2.00       5.00       25.00      OUTLET
SC_29656         0.0150     0.2000     2.00       5.00       25.00      OUTLET
SC_29657         0.0150     0.2000     2.00       5.00       25.00      OUTLET
SC_29658         0.0150     0.2000     2.00       5.00       25.00      OUTLET
SC_29659         0.0150     0.2000     2.00       5.00       25.00      OUTLET
SC_29660         0.0150     0.2000     2.00       5.00       25.00      OUTLET
SC_29661         0.0150     0.2000     2.00       5.00       25.00      OUTLET
SC_29662         0.0150     0.2000     2.00       5.00       25.00      OUTLET
SC_29663         0.0150     0.2000     2.00       5.00       25.00      OUTLET
SC_29664         0.0150     0.2000     2.00       5.00       25.00      OUTLET
SC_29665         0.0150     0.2000     2.00       5.00       25.00      OUTLET
SC_29666         0.0150     0.2000     2.00       5.00       25.00      OUTLET
SC_29667         0.0150     0.2000     2.00       5.00       25.00      OUTLET
SC_29668         0.0150     0.2000     2.00       5.00       25.00      OUTLET
SC_29669         0.0150     0.2000     2.00       5.00       25.00      OUTLET
SC_29670         0.0150     0.2000     2.00       5.00       25.00      OUTLET
SC_29671         0.0150     0.2000     2.00       5.00       25.00      OUTLET
SC_29672         0.0150     0.2000     2.00       5.00       25.00      OUTLET
SC_29673         0.0150     0.2000     2.00       5.00       25.00      OUTLET
SC_29674         0.0150     0.2000     2.00       5.00       25.00      OUTLET
SC_29675         0.0150     0.2000     2.00       5.00       25.00      OUTLET
SC_29676         0.0150     0.2000     2.00       5.00       25.00      OUTLET
SC_29677         0.0150     0.2000     2.00       5.00       25.00      OUTLET
SC_29678         0.0150     0.2000     2.00       5.00       25.00      OUTLET
SC_29679         0.0150     0.2000     2.00       5.00       25.00      OUTLET
SC_29680         0.0150     0.2000     2.00       5.00       25.00      OUTLET
SC_29681         0.0150     0.2000     2.00       5.00       25.00      OUTLET
SC_29682         0.0150     0.2000     2.00       5.00       25.00      OUTLET
SC_29683         0.0150     0.2000     2.00       5.00       25.00      OUTLET
SC_29684         0.0150     0.2000     2.00       5.00       25.00      OUTLET
SC_29685         0.0150     0.2000     2.00       5.00       25.00      OUTLET
SC_29686         0.0150     0.2000     2.00       5.00       25.00      OUTLET
SC_29687         0.0150     0.2000     2.00       5.00       25.00      OUTLET
SC_29688         0.0150     0.2000     2.00       5.00       25.00      OUTLET
SC_29689         0.0150     0.2000     2.00       5.00       25.00      OUTLET
SC_29690         0.0150     0.2000     2.00       5.00       25.00      OUTLET
SC_29691         0.0150     0.2000     2.00       5.00       25.00      OUTLET
SC_29692         0.0150     0.2000     2.00       5.00       25.00      OUTLET
SC_29693         0.0150     0.2000     2.00       5.00       25.00      OUTLET
SC_29694         0.0150     0.2000     2.00       5.00       25.00      OUTLET
SC_29695         0.0150     0.2000     2.00       5.00       25.00      OUTLET
SC_29696         0.0150     0.2000     2.00       5.00       25.00      OUTLET
SC_29697         0.0150     0.2000     2.00       5.00       25.00      OUTLET
SC_29698         0.0150     0.2000     2.00       5.00       25.00      OUTLET
SC_29699         0.0150     0.2000     2.00       5.00       25.00      OUTLET
SC_29700         0.0150     0.2000     2.00       5.00       25.00      OUTLET
SC_29701         0.0150     0.2000     2.00       5.00       25.00      OUTLET
SC_29702         0.0150     0.2000     2.00       5.00       25.00      OUTLET
SC_29703         0.0150     0.2000     2.00       5.00       25.00      OUTLET
SC_29704         0.0150     0.2000     2.00       5.00       25.00      OUTLET
SC_29705         0.0150     0.2000     2.00       5.00       25.00      OUTLET
SC_29706         0.0150     0.2000     2.00       5.00       25.00      OUTLET
SC_29707         0.0150     0.2000     2.00       5.00       25.00      OUTLET
SC_29917         0.0150     0.2000     2.00       5.00       25.00      OUTLET
SC_29918         0.0150     0.2000     2.00       5.00       25.00      OUTLET
SC_29919         0.0150     0.2000     2.00       5.00       25.00      OUTLET
SC_29920         0.0150     0.2000     2.00       5.00       25.00      OUTLET
SC_29921         0.0150     0.2000     2.00       5.00       25.00      OUTLET
SC_29922         0.0150     0.2000     2.00       5.00       25.00      OUTLET
SC_29923         0.0150     0.2000     2.00       5.00       25.00      OUTLET
SC_29924         0.0150     0.2000     2.00       5.00       25.00      OUTLET
SC_29925         0.0150     0.2000     2.00       5.00       25.00      OUTLET
SC_29926         0.0150     0.2000     2.00       5.00       25.00      OUTLET
SC_29927         0.0150     0.2000     2.00       5.00       25.00      OUTLET
SC_29928         0.0150     0.2000     2.00       5.00       25.00      OUTLET
SC_29929         0.0150     0.2000     2.00       5.00       25.00      OUTLET
SC_29930         0.0150     0.2000     2.00       5.00       25.00      OUTLET
SC_29931         0.0150     0.2000     2.00       5.00       25.00      OUTLET
SC_29932         0.0150     0.2000     2.00       5.00       25.00      OUTLET
SC_29933         0.0150     0.2000     2.00       5.00       25.00      OUTLET
SC_29934         0.0150     0.2000     2.00       5.00       25.00      OUTLET
SC_29935         0.0150     0.2000     2.00       5.00       25.00      OUTLET
SC_29936         0.0150     0.2000     2.00       5.00       25.00      OUTLET
SC_29937         0.0150     0.2000     2.00       5.00       25.00      OUTLET
SC_29938         0.0150     0.2000     2.00       5.00       25.00      OUTLET
SC_29939         0.0150     0.2000     2.00       5.00       25.00      OUTLET
SC_29940         0.0150     0.2000     2.00       5.00       25.00      OUTLET
SC_29941         0.0150     0.2000     2.00       5.00       25.00      OUTLET
SC_29942         0.0150     0.2000     2.00       5.00       25.00      OUTLET
SC_29943         0.0150     0.2000     2.00       5.00       25.00      OUTLET
SC_29944         0.0150     0.2000     2.00       5.00       25.00      OUTLET
SC_29945         0.0150     0.2000     2.00       5.00       25.00      OUTLET
SC_29946         0.0150     0.2000     2.00       5.00       25.00      OUTLET
SC_29947         0.0150     0.2000     2.00       5.00       25.00      OUTLET
SC_29948         0.0150     0.2000     2.00       5.00       25.00      OUTLET
SC_29949         0.0150     0.2000     2.00       5.00       25.00      OUTLET
SC_29950         0.0150     0.2000     2.00       5.00       25.00      OUTLET
SC_29951         0.0150     0.2000     2.00       5.00       25.00      OUTLET
SC_29952         0.0150     0.2000     2.00       5.00       25.00      OUTLET
SC_29953         0.0150     0.2000     2.00       5.00       25.00      OUTLET
SC_29954         0.0150     0.2000     2.00       5.00       25.00      OUTLET
SC_29955         0.0150     0.2000     2.00       5.00       25.00      OUTLET
SC_29956         0.0150     0.2000     2.00       5.00       25.00      OUTLET
SC_29957         0.0150     0.2000     2.00       5.00       25.00      OUTLET
SC_29958         0.0150     0.2000     2.00       5.00       25.00      OUTLET
SC_29959         0.0150     0.2000     2.00       5.00       25.00      OUTLET
SC_29960         0.0150     0.2000     2.00       5.00       25.00      OUTLET
SC_29961         0.0150     0.2000     2.00       5.00       25.00      OUTLET
SC_29962         0.0150     0.2000     2.00       5.00       25.00      OUTLET
SC_29963         0.0150     0.2000     2.00       5.00       25.00      OUTLET
SC_29964         0.0150     0.2000     2.00       5.00       25.00      OUTLET
SC_29965         0.0150     0.2000     2.00       5.00       25.00      OUTLET
SC_29966         0.0150     0.2000     2.00       5.00       25.00      OUTLET
SC_29967         0.0150     0.2000     2.00       5.00       25.00      OUTLET
SC_29968         0.0150     0.2000     2.00       5.00       25.00      OUTLET
SC_29969         0.0150     0.2000     2.00       5.00       25.00      OUTLET
SC_29970         0.0150     0.2000     2.00       5.00       25.00      OUTLET
SC_29971         0.0150     0.2000     2.00       5.00       25.00      OUTLET
SC_29972         0.0150     0.2000     2.00       5.00       25.00      OUTLET
SC_29973         0.0150     0.2000     2.00       5.00       25.00      OUTLET
SC_29974         0.0150     0.2000     2.00       5.00       25.00      OUTLET
SC_29975         0.0150     0.2000     2.00       5.00       25.00      OUTLET
SC_29976         0.0150     0.2000     2.00       5.00       25.00      OUTLET
SC_29977         0.0150     0.2000     2.00       5.00       25.00      OUTLET
SC_29978         0.0150     0.2000     2.00       5.00       25.00      OUTLET
SC_29979         0.0150     0.2000     2.00       5.00       25.00      OUTLET
SC_29980         0.0150     0.2000     2.00       5.00       25.00      OUTLET
SC_29981         0.0150     0.2000     2.00       5.00       25.00      OUTLET
SC_29982         0.0150     0.2000     2.00       5.00       25.00      OUTLET
SC_29983         0.0150     0.2000     2.00       5.00       25.00      OUTLET
SC_29984         0.0150     0.2000     2.00       5.00       25.00      OUTLET
SC_30197         0.0150     0.2000     2.00       5.00       25.00      OUTLET
SC_30198         0.0150     0.2000     2.00       5.00       25.00      OUTLET
SC_30204         0.0150     0.2000     2.00       5.00       25.00      OUTLET
SC_30205         0.0150     0.2000     2.00       5.00       25.00      OUTLET
SC_30206         0.0150     0.2000     2.00       5.00       25.00      OUTLET
SC_30207         0.0150     0.2000     2.00       5.00       25.00      OUTLET
SC_30208         0.0150     0.2000     2.00       5.00       25.00      OUTLET
SC_30209         0.0150     0.2000     2.00       5.00       25.00      OUTLET
SC_30210         0.0150     0.2000     2.00       5.00       25.00      OUTLET
SC_30211         0.0150     0.2000     2.00       5.00       25.00      OUTLET
SC_30212         0.0150     0.2000     2.00       5.00       25.00      OUTLET
SC_30213         0.0150     0.2000     2.00       5.00       25.00      OUTLET
SC_30214         0.0150     0.2000     2.00       5.00       25.00      OUTLET
SC_30215         0.0150     0.2000     2.00       5.00       25.00      OUTLET
SC_30216         0.0150     0.2000     2.00       5.00       25.00      OUTLET
SC_30217         0.0150     0.2000     2.00       5.00       25.00      OUTLET
SC_30218         0.0150     0.2000     2.00       5.00       25.00      OUTLET
SC_30219         0.0150     0.2000     2.00       5.00       25.00      OUTLET
SC_30220         0.0150     0.2000     2.00       5.00       25.00      OUTLET
SC_30221         0.0150     0.2000     2.00       5.00       25.00      OUTLET
SC_30222         0.0150     0.2000     2.00       5.00       25.00      OUTLET
SC_30223         0.0150     0.2000     2.00       5.00       25.00      OUTLET
SC_30224         0.0150     0.2000     2.00       5.00       25.00      OUTLET
SC_30225         0.0150     0.2000     2.00       5.00       25.00      OUTLET
SC_30226         0.0150     0.2000     2.00       5.00       25.00      OUTLET
SC_30227         0.0150     0.2000     2.00       5.00       25.00      OUTLET
SC_30228         0.0150     0.2000     2.00       5.00       25.00      OUTLET
SC_30229         0.0150     0.2000     2.00       5.00       25.00      OUTLET
SC_30230         0.0150     0.2000     2.00       5.00       25.00      OUTLET
SC_30231         0.0150     0.2000     2.00       5.00       25.00      OUTLET
SC_30232         0.0150     0.2000     2.00       5.00       25.00      OUTLET
SC_30233         0.0150     0.2000     2.00       5.00       25.00      OUTLET
SC_30234         0.0150     0.2000     2.00       5.00       25.00      OUTLET
SC_30235         0.0150     0.2000     2.00       5.00       25.00      OUTLET
SC_30236         0.0150     0.2000     2.00       5.00       25.00      OUTLET
SC_30237         0.0150     0.2000     2.00       5.00       25.00      OUTLET
SC_30238         0.0150     0.2000     2.00       5.00       25.00      OUTLET
SC_30239         0.0150     0.2000     2.00       5.00       25.00      OUTLET
SC_30240         0.0150     0.2000     2.00       5.00       25.00      OUTLET
SC_30241         0.0150     0.2000     2.00       5.00       25.00      OUTLET
SC_30242         0.0150     0.2000     2.00       5.00       25.00      OUTLET
SC_30243         0.0150     0.2000     2.00       5.00       25.00      OUTLET
SC_30244         0.0150     0.2000     2.00       5.00       25.00      OUTLET
SC_30245         0.0150     0.2000     2.00       5.00       25.00      OUTLET
SC_30246         0.0150     0.2000     2.00       5.00       25.00      OUTLET
SC_30247         0.0150     0.2000     2.00       5.00       25.00      OUTLET
SC_30248         0.0150     0.2000     2.00       5.00       25.00      OUTLET
SC_30249         0.0150     0.2000     2.00       5.00       25.00      OUTLET
SC_30250         0.0150     0.2000     2.00       5.00       25.00      OUTLET
SC_30251         0.0150     0.2000     2.00       5.00       25.00      OUTLET
SC_30252         0.0150     0.2000     2.00       5.00       25.00      OUTLET
SC_30253         0.0150     0.2000     2.00       5.00       25.00      OUTLET
SC_30254         0.0150     0.2000     2.00       5.00       25.00      OUTLET
SC_30255         0.0150     0.2000     2.00       5.00       25.00      OUTLET
SC_30256         0.0150     0.2000     2.00       5.00       25.00      OUTLET
SC_30257         0.0150     0.2000     2.00       5.00       25.00      OUTLET
SC_30258         0.0150     0.2000     2.00       5.00       25.00      OUTLET
SC_30259         0.0150     0.2000     2.00       5.00       25.00      OUTLET
SC_30260         0.0150     0.2000     2.00       5.00       25.00      OUTLET
SC_30261         0.0150     0.2000     2.00       5.00       25.00      OUTLET
SC_30262         0.0150     0.2000     2.00       5.00       25.00      OUTLET
SC_30488         0.0150     0.2000     2.00       5.00       25.00      OUTLET
SC_30489         0.0150     0.2000     2.00       5.00       25.00      OUTLET
SC_30490         0.0150     0.2000     2.00       5.00       25.00      OUTLET
SC_30491         0.0150     0.2000     2.00       5.00       25.00      OUTLET
SC_30492         0.0150     0.2000     2.00       5.00       25.00      OUTLET
SC_30493         0.0150     0.2000     2.00       5.00       25.00      OUTLET
SC_30494         0.0150     0.2000     2.00       5.00       25.00      OUTLET
SC_30495         0.0150     0.2000     2.00       5.00       25.00      OUTLET
SC_30496         0.0150     0.2000     2.00       5.00       25.00      OUTLET
SC_30497         0.0150     0.2000     2.00       5.00       25.00      OUTLET
SC_30498         0.0150     0.2000     2.00       5.00       25.00      OUTLET
SC_30499         0.0150     0.2000     2.00       5.00       25.00      OUTLET
SC_30500         0.0150     0.2000     2.00       5.00       25.00      OUTLET
SC_30501         0.0150     0.2000     2.00       5.00       25.00      OUTLET
SC_30502         0.0150     0.2000     2.00       5.00       25.00      OUTLET
SC_30503         0.0150     0.2000     2.00       5.00       25.00      OUTLET
SC_30504         0.0150     0.2000     2.00       5.00       25.00      OUTLET
SC_30506         0.0150     0.2000     2.00       5.00       25.00      OUTLET
SC_30507         0.0150     0.2000     2.00       5.00       25.00      OUTLET
SC_30508         0.0150     0.2000     2.00       5.00       25.00      OUTLET
SC_30509         0.0150     0.2000     2.00       5.00       25.00      OUTLET
SC_30510         0.0150     0.2000     2.00       5.00       25.00      OUTLET
SC_30511         0.0150     0.2000     2.00       5.00       25.00      OUTLET
SC_30512         0.0150     0.2000     2.00       5.00       25.00      OUTLET
SC_30513         0.0150     0.2000     2.00       5.00       25.00      OUTLET
SC_30514         0.0150     0.2000     2.00       5.00       25.00      OUTLET
SC_30515         0.0150     0.2000     2.00       5.00       25.00      OUTLET
SC_30516         0.0150     0.2000     2.00       5.00       25.00      OUTLET
SC_30517         0.0150     0.2000     2.00       5.00       25.00      OUTLET
SC_30518         0.0150     0.2000     2.00       5.00       25.00      OUTLET
SC_30519         0.0150     0.2000     2.00       5.00       25.00      OUTLET
SC_30520         0.0150     0.2000     2.00       5.00       25.00      OUTLET
SC_30521         0.0150     0.2000     2.00       5.00       25.00      OUTLET
SC_30522         0.0150     0.2000     2.00       5.00       25.00      OUTLET
SC_30523         0.0150     0.2000     2.00       5.00       25.00      OUTLET
SC_30524         0.0150     0.2000     2.00       5.00       25.00      OUTLET
SC_30525         0.0150     0.2000     2.00       5.00       25.00      OUTLET
SC_30526         0.0150     0.2000     2.00       5.00       25.00      OUTLET
SC_30527         0.0150     0.2000     2.00       5.00       25.00      OUTLET
SC_30528         0.0150     0.2000     2.00       5.00       25.00      OUTLET
SC_30529         0.0150     0.2000     2.00       5.00       25.00      OUTLET
SC_30530         0.0150     0.2000     2.00       5.00       25.00      OUTLET
SC_30531         0.0150     0.2000     2.00       5.00       25.00      OUTLET
SC_30532         0.0150     0.2000     2.00       5.00       25.00      OUTLET
SC_30533         0.0150     0.2000     2.00       5.00       25.00      OUTLET
SC_30534         0.0150     0.2000     2.00       5.00       25.00      OUTLET
SC_30535         0.0150     0.2000     2.00       5.00       25.00      OUTLET
SC_30536         0.0150     0.2000     2.00       5.00       25.00      OUTLET
SC_30537         0.0150     0.2000     2.00       5.00       25.00      OUTLET
SC_30538         0.0150     0.2000     2.00       5.00       25.00      OUTLET
SC_30539         0.0150     0.2000     2.00       5.00       25.00      OUTLET
SC_30540         0.0150     0.2000     2.00       5.00       25.00      OUTLET
SC_30541         0.0150     0.2000     2.00       5.00       25.00      OUTLET
SC_30542         0.0150     0.2000     2.00       5.00       25.00      OUTLET
SC_30773         0.0150     0.2000     2.00       5.00       25.00      OUTLET
SC_30774         0.0150     0.2000     2.00       5.00       25.00      OUTLET
SC_30775         0.0150     0.2000     2.00       5.00       25.00      OUTLET
SC_30776         0.0150     0.2000     2.00       5.00       25.00      OUTLET
SC_30779         0.0150     0.2000     2.00       5.00       25.00      OUTLET
SC_30780         0.0150     0.2000     2.00       5.00       25.00      OUTLET
SC_30781         0.0150     0.2000     2.00       5.00       25.00      OUTLET
SC_30782         0.0150     0.2000     2.00       5.00       25.00      OUTLET
SC_30783         0.0150     0.2000     2.00       5.00       25.00      OUTLET
SC_30787         0.0150     0.2000     2.00       5.00       25.00      OUTLET
SC_30788         0.0150     0.2000     2.00       5.00       25.00      OUTLET
SC_30789         0.0150     0.2000     2.00       5.00       25.00      OUTLET
SC_30790         0.0150     0.2000     2.00       5.00       25.00      OUTLET
SC_30791         0.0150     0.2000     2.00       5.00       25.00      OUTLET
SC_30792         0.0150     0.2000     2.00       5.00       25.00      OUTLET
SC_30793         0.0150     0.2000     2.00       5.00       25.00      OUTLET
SC_30794         0.0150     0.2000     2.00       5.00       25.00      OUTLET
SC_30795         0.0150     0.2000     2.00       5.00       25.00      OUTLET
SC_30796         0.0150     0.2000     2.00       5.00       25.00      OUTLET
SC_30797         0.0150     0.2000     2.00       5.00       25.00      OUTLET
SC_30798         0.0150     0.2000     2.00       5.00       25.00      OUTLET
SC_30799         0.0150     0.2000     2.00       5.00       25.00      OUTLET
SC_30800         0.0150     0.2000     2.00       5.00       25.00      OUTLET
SC_30801         0.0150     0.2000     2.00       5.00       25.00      OUTLET
SC_30802         0.0150     0.2000     2.00       5.00       25.00      OUTLET
SC_30803         0.0150     0.2000     2.00       5.00       25.00      OUTLET
SC_30804         0.0150     0.2000     2.00       5.00       25.00      OUTLET
SC_30805         0.0150     0.2000     2.00       5.00       25.00      OUTLET
SC_30806         0.0150     0.2000     2.00       5.00       25.00      OUTLET
SC_30807         0.0150     0.2000     2.00       5.00       25.00      OUTLET
SC_30808         0.0150     0.2000     2.00       5.00       25.00      OUTLET
SC_30809         0.0150     0.2000     2.00       5.00       25.00      OUTLET
SC_30810         0.0150     0.2000     2.00       5.00       25.00      OUTLET
SC_30811         0.0150     0.2000     2.00       5.00       25.00      OUTLET
SC_30812         0.0150     0.2000     2.00       5.00       25.00      OUTLET
SC_30813         0.0150     0.2000     2.00       5.00       25.00      OUTLET
SC_30814         0.0150     0.2000     2.00       5.00       25.00      OUTLET
SC_30815         0.0150     0.2000     2.00       5.00       25.00      OUTLET
SC_30816         0.0150     0.2000     2.00       5.00       25.00      OUTLET
SC_30817         0.0150     0.2000     2.00       5.00       25.00      OUTLET
SC_30818         0.0150     0.2000     2.00       5.00       25.00      OUTLET
SC_30819         0.0150     0.2000     2.00       5.00       25.00      OUTLET
SC_30820         0.0150     0.2000     2.00       5.00       25.00      OUTLET
SC_30821         0.0150     0.2000     2.00       5.00       25.00      OUTLET
SC_30822         0.0150     0.2000     2.00       5.00       25.00      OUTLET
SC_31061         0.0150     0.2000     2.00       5.00       25.00      OUTLET
SC_31063         0.0150     0.2000     2.00       5.00       25.00      OUTLET
SC_31064         0.0150     0.2000     2.00       5.00       25.00      OUTLET
SC_31065         0.0150     0.2000     2.00       5.00       25.00      OUTLET
SC_31066         0.0150     0.2000     2.00       5.00       25.00      OUTLET
SC_31069         0.0150     0.2000     2.00       5.00       25.00      OUTLET
SC_31070         0.0150     0.2000     2.00       5.00       25.00      OUTLET
SC_31071         0.0150     0.2000     2.00       5.00       25.00      OUTLET
SC_31072         0.0150     0.2000     2.00       5.00       25.00      OUTLET
SC_31073         0.0150     0.2000     2.00       5.00       25.00      OUTLET
SC_31074         0.0150     0.2000     2.00       5.00       25.00      OUTLET
SC_31075         0.0150     0.2000     2.00       5.00       25.00      OUTLET
SC_31076         0.0150     0.2000     2.00       5.00       25.00      OUTLET
SC_31077         0.0150     0.2000     2.00       5.00       25.00      OUTLET
SC_31078         0.0150     0.2000     2.00       5.00       25.00      OUTLET
SC_31079         0.0150     0.2000     2.00       5.00       25.00      OUTLET
SC_31080         0.0150     0.2000     2.00       5.00       25.00      OUTLET
SC_31081         0.0150     0.2000     2.00       5.00       25.00      OUTLET
SC_31082         0.0150     0.2000     2.00       5.00       25.00      OUTLET
SC_31083         0.0150     0.2000     2.00       5.00       25.00      OUTLET
SC_31084         0.0150     0.2000     2.00       5.00       25.00      OUTLET
SC_31085         0.0150     0.2000     2.00       5.00       25.00      OUTLET
SC_31086         0.0150     0.2000     2.00       5.00       25.00      OUTLET
SC_31087         0.0150     0.2000     2.00       5.00       25.00      OUTLET
SC_31088         0.0150     0.2000     2.00       5.00       25.00      OUTLET
SC_31089         0.0150     0.2000     2.00       5.00       25.00      OUTLET
SC_31090         0.0150     0.2000     2.00       5.00       25.00      OUTLET
SC_31091         0.0150     0.2000     2.00       5.00       25.00      OUTLET
SC_31092         0.0150     0.2000     2.00       5.00       25.00      OUTLET
SC_31093         0.0150     0.2000     2.00       5.00       25.00      OUTLET
SC_31094         0.0150     0.2000     2.00       5.00       25.00      OUTLET
SC_31095         0.0150     0.2000     2.00       5.00       25.00      OUTLET
SC_31096         0.0150     0.2000     2.00       5.00       25.00      OUTLET
SC_31097         0.0150     0.2000     2.00       5.00       25.00      OUTLET
SC_31098         0.0150     0.2000     2.00       5.00       25.00      OUTLET
SC_31099         0.0150     0.2000     2.00       5.00       25.00      OUTLET
SC_31100         0.0150     0.2000     2.00       5.00       25.00      OUTLET
SC_31101         0.0150     0.2000     2.00       5.00       25.00      OUTLET
SC_31102         0.0150     0.2000     2.00       5.00       25.00      OUTLET
SC_31103         0.0150     0.2000     2.00       5.00       25.00      OUTLET
SC_31104         0.0150     0.2000     2.00       5.00       25.00      OUTLET
SC_31351         0.0150     0.2000     2.00       5.00       25.00      OUTLET
SC_31352         0.0150     0.2000     2.00       5.00       25.00      OUTLET
SC_31353         0.0150     0.2000     2.00       5.00       25.00      OUTLET
SC_31354         0.0150     0.2000     2.00       5.00       25.00      OUTLET
SC_31355         0.0150     0.2000     2.00       5.00       25.00      OUTLET
SC_31356         0.0150     0.2000     2.00       5.00       25.00      OUTLET
SC_31357         0.0150     0.2000     2.00       5.00       25.00      OUTLET
SC_31358         0.0150     0.2000     2.00       5.00       25.00      OUTLET
SC_31359         0.0150     0.2000     2.00       5.00       25.00      OUTLET
SC_31360         0.0150     0.2000     2.00       5.00       25.00      OUTLET
SC_31361         0.0150     0.2000     2.00       5.00       25.00      OUTLET
SC_31362         0.0150     0.2000     2.00       5.00       25.00      OUTLET
SC_31363         0.0150     0.2000     2.00       5.00       25.00      OUTLET
SC_31364         0.0150     0.2000     2.00       5.00       25.00      OUTLET
SC_31365         0.0150     0.2000     2.00       5.00       25.00      OUTLET
SC_31366         0.0150     0.2000     2.00       5.00       25.00      OUTLET
SC_31367         0.0150     0.2000     2.00       5.00       25.00      OUTLET
SC_31368         0.0150     0.2000     2.00       5.00       25.00      OUTLET
SC_31369         0.0150     0.2000     2.00       5.00       25.00      OUTLET
SC_31370         0.0150     0.2000     2.00       5.00       25.00      OUTLET
SC_31371         0.0150     0.2000     2.00       5.00       25.00      OUTLET
SC_31372         0.0150     0.2000     2.00       5.00       25.00      OUTLET
SC_31373         0.0150     0.2000     2.00       5.00       25.00      OUTLET
SC_31374         0.0150     0.2000     2.00       5.00       25.00      OUTLET
SC_31375         0.0150     0.2000     2.00       5.00       25.00      OUTLET
SC_31376         0.0150     0.2000     2.00       5.00       25.00      OUTLET
SC_31377         0.0150     0.2000     2.00       5.00       25.00      OUTLET
SC_31378         0.0150     0.2000     2.00       5.00       25.00      OUTLET
SC_31379         0.0150     0.2000     2.00       5.00       25.00      OUTLET
SC_31380         0.0150     0.2000     2.00       5.00       25.00      OUTLET
SC_31381         0.0150     0.2000     2.00       5.00       25.00      OUTLET
SC_31382         0.0150     0.2000     2.00       5.00       25.00      OUTLET
SC_31383         0.0150     0.2000     2.00       5.00       25.00      OUTLET
SC_31384         0.0150     0.2000     2.00       5.00       25.00      OUTLET
SC_31385         0.0150     0.2000     2.00       5.00       25.00      OUTLET
SC_31386         0.0150     0.2000     2.00       5.00       25.00      OUTLET
SC_31631         0.0150     0.2000     2.00       5.00       25.00      OUTLET
SC_31632         0.0150     0.2000     2.00       5.00       25.00      OUTLET
SC_31633         0.0150     0.2000     2.00       5.00       25.00      OUTLET
SC_31634         0.0150     0.2000     2.00       5.00       25.00      OUTLET
SC_31635         0.0150     0.2000     2.00       5.00       25.00      OUTLET
SC_31636         0.0150     0.2000     2.00       5.00       25.00      OUTLET
SC_31637         0.0150     0.2000     2.00       5.00       25.00      OUTLET
SC_31638         0.0150     0.2000     2.00       5.00       25.00      OUTLET
SC_31639         0.0150     0.2000     2.00       5.00       25.00      OUTLET
SC_31640         0.0150     0.2000     2.00       5.00       25.00      OUTLET
SC_31641         0.0150     0.2000     2.00       5.00       25.00      OUTLET
SC_31642         0.0150     0.2000     2.00       5.00       25.00      OUTLET
SC_31643         0.0150     0.2000     2.00       5.00       25.00      OUTLET
SC_31644         0.0150     0.2000     2.00       5.00       25.00      OUTLET
SC_31645         0.0150     0.2000     2.00       5.00       25.00      OUTLET
SC_31646         0.0150     0.2000     2.00       5.00       25.00      OUTLET
SC_31647         0.0150     0.2000     2.00       5.00       25.00      OUTLET
SC_31648         0.0150     0.2000     2.00       5.00       25.00      OUTLET
SC_31649         0.0150     0.2000     2.00       5.00       25.00      OUTLET
SC_31650         0.0150     0.2000     2.00       5.00       25.00      OUTLET
SC_31651         0.0150     0.2000     2.00       5.00       25.00      OUTLET
SC_31652         0.0150     0.2000     2.00       5.00       25.00      OUTLET
SC_31653         0.0150     0.2000     2.00       5.00       25.00      OUTLET
SC_31654         0.0150     0.2000     2.00       5.00       25.00      OUTLET
SC_31655         0.0150     0.2000     2.00       5.00       25.00      OUTLET
SC_31656         0.0150     0.2000     2.00       5.00       25.00      OUTLET
SC_31657         0.0150     0.2000     2.00       5.00       25.00      OUTLET
SC_31658         0.0150     0.2000     2.00       5.00       25.00      OUTLET
SC_31659         0.0150     0.2000     2.00       5.00       25.00      OUTLET
SC_31660         0.0150     0.2000     2.00       5.00       25.00      OUTLET
SC_31661         0.0150     0.2000     2.00       5.00       25.00      OUTLET
SC_31662         0.0150     0.2000     2.00       5.00       25.00      OUTLET
SC_31663         0.0150     0.2000     2.00       5.00       25.00      OUTLET
SC_31666         0.0150     0.2000     2.00       5.00       25.00      OUTLET
SC_31667         0.0150     0.2000     2.00       5.00       25.00      OUTLET
SC_31912         0.0150     0.2000     2.00       5.00       25.00      OUTLET
SC_31913         0.0150     0.2000     2.00       5.00       25.00      OUTLET
SC_31914         0.0150     0.2000     2.00       5.00       25.00      OUTLET
SC_31915         0.0150     0.2000     2.00       5.00       25.00      OUTLET
SC_31916         0.0150     0.2000     2.00       5.00       25.00      OUTLET
SC_31917         0.0150     0.2000     2.00       5.00       25.00      OUTLET
SC_31918         0.0150     0.2000     2.00       5.00       25.00      OUTLET
SC_31919         0.0150     0.2000     2.00       5.00       25.00      OUTLET
SC_31920         0.0150     0.2000     2.00       5.00       25.00      OUTLET
SC_31921         0.0150     0.2000     2.00       5.00       25.00      OUTLET
SC_31922         0.0150     0.2000     2.00       5.00       25.00      OUTLET
SC_31923         0.0150     0.2000     2.00       5.00       25.00      OUTLET
SC_31924         0.0150     0.2000     2.00       5.00       25.00      OUTLET
SC_31925         0.0150     0.2000     2.00       5.00       25.00      OUTLET
SC_31926         0.0150     0.2000     2.00       5.00       25.00      OUTLET
SC_31927         0.0150     0.2000     2.00       5.00       25.00      OUTLET
SC_31928         0.0150     0.2000     2.00       5.00       25.00      OUTLET
SC_31929         0.0150     0.2000     2.00       5.00       25.00      OUTLET
SC_31930         0.0150     0.2000     2.00       5.00       25.00      OUTLET
SC_31931         0.0150     0.2000     2.00       5.00       25.00      OUTLET
SC_31932         0.0150     0.2000     2.00       5.00       25.00      OUTLET
SC_31933         0.0150     0.2000     2.00       5.00       25.00      OUTLET
SC_31934         0.0150     0.2000     2.00       5.00       25.00      OUTLET
SC_31935         0.0150     0.2000     2.00       5.00       25.00      OUTLET
SC_31936         0.0150     0.2000     2.00       5.00       25.00      OUTLET
SC_31937         0.0150     0.2000     2.00       5.00       25.00      OUTLET
SC_31938         0.0150     0.2000     2.00       5.00       25.00      OUTLET
SC_31939         0.0150     0.2000     2.00       5.00       25.00      OUTLET
SC_31940         0.0150     0.2000     2.00       5.00       25.00      OUTLET
SC_31941         0.0150     0.2000     2.00       5.00       25.00      OUTLET
SC_31942         0.0150     0.2000     2.00       5.00       25.00      OUTLET
SC_31943         0.0150     0.2000     2.00       5.00       25.00      OUTLET
SC_32193         0.0150     0.2000     2.00       5.00       25.00      OUTLET
SC_32194         0.0150     0.2000     2.00       5.00       25.00      OUTLET
SC_32195         0.0150     0.2000     2.00       5.00       25.00      OUTLET
SC_32196         0.0150     0.2000     2.00       5.00       25.00      OUTLET
SC_32197         0.0150     0.2000     2.00       5.00       25.00      OUTLET
SC_32198         0.0150     0.2000     2.00       5.00       25.00      OUTLET
SC_32199         0.0150     0.2000     2.00       5.00       25.00      OUTLET
SC_32200         0.0150     0.2000     2.00       5.00       25.00      OUTLET
SC_32201         0.0150     0.2000     2.00       5.00       25.00      OUTLET
SC_32202         0.0150     0.2000     2.00       5.00       25.00      OUTLET
SC_32203         0.0150     0.2000     2.00       5.00       25.00      OUTLET
SC_32204         0.0150     0.2000     2.00       5.00       25.00      OUTLET
SC_32205         0.0150     0.2000     2.00       5.00       25.00      OUTLET
SC_32206         0.0150     0.2000     2.00       5.00       25.00      OUTLET
SC_32207         0.0150     0.2000     2.00       5.00       25.00      OUTLET
SC_32208         0.0150     0.2000     2.00       5.00       25.00      OUTLET
SC_32209         0.0150     0.2000     2.00       5.00       25.00      OUTLET
SC_32210         0.0150     0.2000     2.00       5.00       25.00      OUTLET
SC_32211         0.0150     0.2000     2.00       5.00       25.00      OUTLET
SC_32212         0.0150     0.2000     2.00       5.00       25.00      OUTLET
SC_32213         0.0150     0.2000     2.00       5.00       25.00      OUTLET
SC_32214         0.0150     0.2000     2.00       5.00       25.00      OUTLET
SC_32215         0.0150     0.2000     2.00       5.00       25.00      OUTLET
SC_32216         0.0150     0.2000     2.00       5.00       25.00      OUTLET
SC_32217         0.0150     0.2000     2.00       5.00       25.00      OUTLET
SC_32218         0.0150     0.2000     2.00       5.00       25.00      OUTLET
SC_32219         0.0150     0.2000     2.00       5.00       25.00      OUTLET
SC_32220         0.0150     0.2000     2.00       5.00       25.00      OUTLET
SC_32221         0.0150     0.2000     2.00       5.00       25.00      OUTLET
SC_32222         0.0150     0.2000     2.00       5.00       25.00      OUTLET
SC_32223         0.0150     0.2000     2.00       5.00       25.00      OUTLET
SC_32473         0.0150     0.2000     2.00       5.00       25.00      OUTLET
SC_32474         0.0150     0.2000     2.00       5.00       25.00      OUTLET
SC_32475         0.0150     0.2000     2.00       5.00       25.00      OUTLET
SC_32476         0.0150     0.2000     2.00       5.00       25.00      OUTLET
SC_32477         0.0150     0.2000     2.00       5.00       25.00      OUTLET
SC_32478         0.0150     0.2000     2.00       5.00       25.00      OUTLET
SC_32479         0.0150     0.2000     2.00       5.00       25.00      OUTLET
SC_32480         0.0150     0.2000     2.00       5.00       25.00      OUTLET
SC_32481         0.0150     0.2000     2.00       5.00       25.00      OUTLET
SC_32482         0.0150     0.2000     2.00       5.00       25.00      OUTLET
SC_32483         0.0150     0.2000     2.00       5.00       25.00      OUTLET
SC_32484         0.0150     0.2000     2.00       5.00       25.00      OUTLET
SC_32485         0.0150     0.2000     2.00       5.00       25.00      OUTLET
SC_32486         0.0150     0.2000     2.00       5.00       25.00      OUTLET
SC_32487         0.0150     0.2000     2.00       5.00       25.00      OUTLET
SC_32488         0.0150     0.2000     2.00       5.00       25.00      OUTLET
SC_32489         0.0150     0.2000     2.00       5.00       25.00      OUTLET
SC_32490         0.0150     0.2000     2.00       5.00       25.00      OUTLET
SC_32491         0.0150     0.2000     2.00       5.00       25.00      OUTLET
SC_32492         0.0150     0.2000     2.00       5.00       25.00      OUTLET
SC_32493         0.0150     0.2000     2.00       5.00       25.00      OUTLET
SC_32494         0.0150     0.2000     2.00       5.00       25.00      OUTLET
SC_32495         0.0150     0.2000     2.00       5.00       25.00      OUTLET
SC_32496         0.0150     0.2000     2.00       5.00       25.00      OUTLET
SC_32497         0.0150     0.2000     2.00       5.00       25.00      OUTLET
SC_32498         0.0150     0.2000     2.00       5.00       25.00      OUTLET
SC_32499         0.0150     0.2000     2.00       5.00       25.00      OUTLET
SC_32500         0.0150     0.2000     2.00       5.00       25.00      OUTLET
SC_32501         0.0150     0.2000     2.00       5.00       25.00      OUTLET
SC_32502         0.0150     0.2000     2.00       5.00       25.00      OUTLET
SC_32759         0.0150     0.2000     2.00       5.00       25.00      OUTLET
SC_32760         0.0150     0.2000     2.00       5.00       25.00      OUTLET
SC_32761         0.0150     0.2000     2.00       5.00       25.00      OUTLET
SC_32762         0.0150     0.2000     2.00       5.00       25.00      OUTLET
SC_32763         0.0150     0.2000     2.00       5.00       25.00      OUTLET
SC_32764         0.0150     0.2000     2.00       5.00       25.00      OUTLET
SC_32765         0.0150     0.2000     2.00       5.00       25.00      OUTLET
SC_32766         0.0150     0.2000     2.00       5.00       25.00      OUTLET
SC_32767         0.0150     0.2000     2.00       5.00       25.00      OUTLET
SC_32768         0.0150     0.2000     2.00       5.00       25.00      OUTLET
SC_32769         0.0150     0.2000     2.00       5.00       25.00      OUTLET
SC_32770         0.0150     0.2000     2.00       5.00       25.00      OUTLET
SC_32771         0.0150     0.2000     2.00       5.00       25.00      OUTLET
SC_32772         0.0150     0.2000     2.00       5.00       25.00      OUTLET
SC_32773         0.0150     0.2000     2.00       5.00       25.00      OUTLET
SC_32774         0.0150     0.2000     2.00       5.00       25.00      OUTLET
SC_32775         0.0150     0.2000     2.00       5.00       25.00      OUTLET
SC_32776         0.0150     0.2000     2.00       5.00       25.00      OUTLET
SC_32777         0.0150     0.2000     2.00       5.00       25.00      OUTLET
SC_32778         0.0150     0.2000     2.00       5.00       25.00      OUTLET
SC_32779         0.0150     0.2000     2.00       5.00       25.00      OUTLET
SC_32780         0.0150     0.2000     2.00       5.00       25.00      OUTLET
SC_32781         0.0150     0.2000     2.00       5.00       25.00      OUTLET
SC_33039         0.0150     0.2000     2.00       5.00       25.00      OUTLET
SC_33040         0.0150     0.2000     2.00       5.00       25.00      OUTLET
SC_33041         0.0150     0.2000     2.00       5.00       25.00      OUTLET
SC_33042         0.0150     0.2000     2.00       5.00       25.00      OUTLET
SC_33043         0.0150     0.2000     2.00       5.00       25.00      OUTLET
SC_33044         0.0150     0.2000     2.00       5.00       25.00      OUTLET
SC_33045         0.0150     0.2000     2.00       5.00       25.00      OUTLET
SC_33046         0.0150     0.2000     2.00       5.00       25.00      OUTLET
SC_33047         0.0150     0.2000     2.00       5.00       25.00      OUTLET
SC_33048         0.0150     0.2000     2.00       5.00       25.00      OUTLET
SC_33049         0.0150     0.2000     2.00       5.00       25.00      OUTLET
SC_33050         0.0150     0.2000     2.00       5.00       25.00      OUTLET
SC_33051         0.0150     0.2000     2.00       5.00       25.00      OUTLET
SC_33052         0.0150     0.2000     2.00       5.00       25.00      OUTLET
SC_33053         0.0150     0.2000     2.00       5.00       25.00      OUTLET
SC_33054         0.0150     0.2000     2.00       5.00       25.00      OUTLET
SC_33055         0.0150     0.2000     2.00       5.00       25.00      OUTLET
SC_33056         0.0150     0.2000     2.00       5.00       25.00      OUTLET
SC_33057         0.0150     0.2000     2.00       5.00       25.00      OUTLET
SC_33058         0.0150     0.2000     2.00       5.00       25.00      OUTLET
SC_33316         0.0150     0.2000     2.00       5.00       25.00      OUTLET
SC_33317         0.0150     0.2000     2.00       5.00       25.00      OUTLET
SC_33318         0.0150     0.2000     2.00       5.00       25.00      OUTLET
SC_33319         0.0150     0.2000     2.00       5.00       25.00      OUTLET
SC_33320         0.0150     0.2000     2.00       5.00       25.00      OUTLET
SC_33321         0.0150     0.2000     2.00       5.00       25.00      OUTLET
SC_33322         0.0150     0.2000     2.00       5.00       25.00      OUTLET
SC_33323         0.0150     0.2000     2.00       5.00       25.00      OUTLET
SC_33324         0.0150     0.2000     2.00       5.00       25.00      OUTLET
SC_33325         0.0150     0.2000     2.00       5.00       25.00      OUTLET
SC_33326         0.0150     0.2000     2.00       5.00       25.00      OUTLET
SC_33327         0.0150     0.2000     2.00       5.00       25.00      OUTLET
SC_33328         0.0150     0.2000     2.00       5.00       25.00      OUTLET
SC_33329         0.0150     0.2000     2.00       5.00       25.00      OUTLET
SC_33330         0.0150     0.2000     2.00       5.00       25.00      OUTLET
SC_33331         0.0150     0.2000     2.00       5.00       25.00      OUTLET
SC_33332         0.0150     0.2000     2.00       5.00       25.00      OUTLET
SC_33333         0.0150     0.2000     2.00       5.00       25.00      OUTLET
SC_33334         0.0150     0.2000     2.00       5.00       25.00      OUTLET
SC_33593         0.0150     0.2000     2.00       5.00       25.00      OUTLET
SC_33594         0.0150     0.2000     2.00       5.00       25.00      OUTLET
SC_33595         0.0150     0.2000     2.00       5.00       25.00      OUTLET
SC_33596         0.0150     0.2000     2.00       5.00       25.00      OUTLET
SC_33597         0.0150     0.2000     2.00       5.00       25.00      OUTLET
SC_33598         0.0150     0.2000     2.00       5.00       25.00      OUTLET
SC_33599         0.0150     0.2000     2.00       5.00       25.00      OUTLET
SC_33600         0.0150     0.2000     2.00       5.00       25.00      OUTLET
SC_33601         0.0150     0.2000     2.00       5.00       25.00      OUTLET
SC_33602         0.0150     0.2000     2.00       5.00       25.00      OUTLET
SC_33603         0.0150     0.2000     2.00       5.00       25.00      OUTLET
SC_33604         0.0150     0.2000     2.00       5.00       25.00      OUTLET
SC_33605         0.0150     0.2000     2.00       5.00       25.00      OUTLET
SC_33606         0.0150     0.2000     2.00       5.00       25.00      OUTLET
SC_33607         0.0150     0.2000     2.00       5.00       25.00      OUTLET
SC_33608         0.0150     0.2000     2.00       5.00       25.00      OUTLET
SC_33609         0.0150     0.2000     2.00       5.00       25.00      OUTLET
SC_33869         0.0150     0.2000     2.00       5.00       25.00      OUTLET
SC_33870         0.0150     0.2000     2.00       5.00       25.00      OUTLET
SC_33871         0.0150     0.2000     2.00       5.00       25.00      OUTLET
SC_33872         0.0150     0.2000     2.00       5.00       25.00      OUTLET
SC_33873         0.0150     0.2000     2.00       5.00       25.00      OUTLET
SC_33874         0.0150     0.2000     2.00       5.00       25.00      OUTLET
SC_33875         0.0150     0.2000     2.00       5.00       25.00      OUTLET
SC_33876         0.0150     0.2000     2.00       5.00       25.00      OUTLET
SC_33877         0.0150     0.2000     2.00       5.00       25.00      OUTLET
SC_33878         0.0150     0.2000     2.00       5.00       25.00      OUTLET
SC_33879         0.0150     0.2000     2.00       5.00       25.00      OUTLET
SC_33880         0.0150     0.2000     2.00       5.00       25.00      OUTLET
SC_33881         0.0150     0.2000     2.00       5.00       25.00      OUTLET
SC_33882         0.0150     0.2000     2.00       5.00       25.00      OUTLET
SC_33883         0.0150     0.2000     2.00       5.00       25.00      OUTLET
SC_34144         0.0150     0.2000     2.00       5.00       25.00      OUTLET
SC_34145         0.0150     0.2000     2.00       5.00       25.00      OUTLET
SC_34146         0.0150     0.2000     2.00       5.00       25.00      OUTLET
SC_34147         0.0150     0.2000     2.00       5.00       25.00      OUTLET
SC_34148         0.0150     0.2000     2.00       5.00       25.00      OUTLET
SC_34149         0.0150     0.2000     2.00       5.00       25.00      OUTLET
SC_34150         0.0150     0.2000     2.00       5.00       25.00      OUTLET
SC_34151         0.0150     0.2000     2.00       5.00       25.00      OUTLET
SC_34152         0.0150     0.2000     2.00       5.00       25.00      OUTLET
SC_34153         0.0150     0.2000     2.00       5.00       25.00      OUTLET
SC_34155         0.0150     0.2000     2.00       5.00       25.00      OUTLET
SC_34418         0.0150     0.2000     2.00       5.00       25.00      OUTLET
SC_34419         0.0150     0.2000     2.00       5.00       25.00      OUTLET
SC_34420         0.0150     0.2000     2.00       5.00       25.00      OUTLET
SC_34421         0.0150     0.2000     2.00       5.00       25.00      OUTLET
SC_34422         0.0150     0.2000     2.00       5.00       25.00      OUTLET
SC_34423         0.0150     0.2000     2.00       5.00       25.00      OUTLET
SC_34424         0.0150     0.2000     2.00       5.00       25.00      OUTLET
SC_34694         0.0150     0.2000     2.00       5.00       25.00      OUTLET
SC_34695         0.0150     0.2000     2.00       5.00       25.00      OUTLET
SC_34696         0.0150     0.2000     2.00       5.00       25.00      OUTLET
SC_34697         0.0150     0.2000     2.00       5.00       25.00      OUTLET
SC_34698         0.0150     0.2000     2.00       5.00       25.00      OUTLET
SC_34969         0.0150     0.2000     2.00       5.00       25.00      OUTLET
SC_34970         0.0150     0.2000     2.00       5.00       25.00      OUTLET

[INFILTRATION]
;;Subcatchment   MaxRate    MinRate    Decay      DryTime    MaxInfil
SC_22963         50.00      6.20       3.00       7.00       0.00
SC_22964         50.00      6.20       3.00       7.00       0.00
SC_23248         50.00      6.20       3.00       7.00       0.00
SC_23249         50.00      6.20       3.00       7.00       0.00
SC_23250         50.00      6.20       3.00       7.00       0.00
SC_23251         50.00      6.20       3.00       7.00       0.00
SC_23252         50.00      6.20       3.00       7.00       0.00
SC_23253         50.00      6.20       3.00       7.00       0.00
SC_23536         50.00      6.20       3.00       7.00       0.00
SC_23537         50.00      6.20       3.00       7.00       0.00
SC_23538         50.00      6.20       3.00       7.00       0.00
SC_23539         50.00      6.20       3.00       7.00       0.00
SC_23540         50.00      6.20       3.00       7.00       0.00
SC_23541         50.00      6.20       3.00       7.00       0.00
SC_23542         50.00      6.20       3.00       7.00       0.00
SC_23543         50.00      6.20       3.00       7.00       0.00
SC_23823         50.00      6.20       3.00       7.00       0.00
SC_23824         50.00      6.20       3.00       7.00       0.00
SC_23825         50.00      6.20       3.00       7.00       0.00
SC_23826         50.00      6.20       3.00       7.00       0.00
SC_23827         50.00      6.20       3.00       7.00       0.00
SC_23828         50.00      6.20       3.00       7.00       0.00
SC_23829         50.00      6.20       3.00       7.00       0.00
SC_23830         50.00      6.20       3.00       7.00       0.00
SC_23831         50.00      6.20       3.00       7.00       0.00
SC_23832         50.00      6.20       3.00       7.00       0.00
SC_24105         50.00      6.20       3.00       7.00       0.00
SC_24106         50.00      6.20       3.00       7.00       0.00
SC_24107         50.00      6.20       3.00       7.00       0.00
SC_24108         50.00      6.20       3.00       7.00       0.00
SC_24109         50.00      6.20       3.00       7.00       0.00
SC_24110         50.00      6.20       3.00       7.00       0.00
SC_24111         50.00      6.20       3.00       7.00       0.00
SC_24112         50.00      6.20       3.00       7.00       0.00
SC_24113         50.00      6.20       3.00       7.00       0.00
SC_24114         50.00      6.20       3.00       7.00       0.00
SC_24115         50.00      6.20       3.00       7.00       0.00
SC_24116         50.00      6.20       3.00       7.00       0.00
SC_24117         50.00      6.20       3.00       7.00       0.00
SC_24118         50.00      6.20       3.00       7.00       0.00
SC_24387         50.00      6.20       3.00       7.00       0.00
SC_24388         50.00      6.20       3.00       7.00       0.00
SC_24389         50.00      6.20       3.00       7.00       0.00
SC_24390         50.00      6.20       3.00       7.00       0.00
SC_24391         50.00      6.20       3.00       7.00       0.00
SC_24392         50.00      6.20       3.00       7.00       0.00
SC_24393         50.00      6.20       3.00       7.00       0.00
SC_24394         50.00      6.20       3.00       7.00       0.00
SC_24395         50.00      6.20       3.00       7.00       0.00
SC_24396         50.00      6.20       3.00       7.00       0.00
SC_24397         50.00      6.20       3.00       7.00       0.00
SC_24398         50.00      6.20       3.00       7.00       0.00
SC_24399         50.00      6.20       3.00       7.00       0.00
SC_24400         50.00      6.20       3.00       7.00       0.00
SC_24401         50.00      6.20       3.00       7.00       0.00
SC_24402         50.00      6.20       3.00       7.00       0.00
SC_24668         50.00      6.20       3.00       7.00       0.00
SC_24669         50.00      6.20       3.00       7.00       0.00
SC_24670         50.00      6.20       3.00       7.00       0.00
SC_24671         50.00      6.20       3.00       7.00       0.00
SC_24672         50.00      6.20       3.00       7.00       0.00
SC_24673         50.00      6.20       3.00       7.00       0.00
SC_24674         50.00      6.20       3.00       7.00       0.00
SC_24675         50.00      6.20       3.00       7.00       0.00
SC_24676         50.00      6.20       3.00       7.00       0.00
SC_24677         50.00      6.20       3.00       7.00       0.00
SC_24678         50.00      6.20       3.00       7.00       0.00
SC_24679         50.00      6.20       3.00       7.00       0.00
SC_24680         50.00      6.20       3.00       7.00       0.00
SC_24681         50.00      6.20       3.00       7.00       0.00
SC_24682         50.00      6.20       3.00       7.00       0.00
SC_24683         50.00      6.20       3.00       7.00       0.00
SC_24684         50.00      6.20       3.00       7.00       0.00
SC_24685         50.00      6.20       3.00       7.00       0.00
SC_24692         50.00      6.20       3.00       7.00       0.00
SC_24693         50.00      6.20       3.00       7.00       0.00
SC_24694         50.00      6.20       3.00       7.00       0.00
SC_24695         50.00      6.20       3.00       7.00       0.00
SC_24945         50.00      6.20       3.00       7.00       0.00
SC_24946         50.00      6.20       3.00       7.00       0.00
SC_24947         50.00      6.20       3.00       7.00       0.00
SC_24948         50.00      6.20       3.00       7.00       0.00
SC_24949         50.00      6.20       3.00       7.00       0.00
SC_24950         50.00      6.20       3.00       7.00       0.00
SC_24951         50.00      6.20       3.00       7.00       0.00
SC_24952         50.00      6.20       3.00       7.00       0.00
SC_24953         50.00      6.20       3.00       7.00       0.00
SC_24954         50.00      6.20       3.00       7.00       0.00
SC_24955         50.00      6.20       3.00       7.00       0.00
SC_24956         50.00      6.20       3.00       7.00       0.00
SC_24957         50.00      6.20       3.00       7.00       0.00
SC_24958         50.00      6.20       3.00       7.00       0.00
SC_24959         50.00      6.20       3.00       7.00       0.00
SC_24960         50.00      6.20       3.00       7.00       0.00
SC_24961         50.00      6.20       3.00       7.00       0.00
SC_24962         50.00      6.20       3.00       7.00       0.00
SC_24963         50.00      6.20       3.00       7.00       0.00
SC_24964         50.00      6.20       3.00       7.00       0.00
SC_24965         50.00      6.20       3.00       7.00       0.00
SC_24966         50.00      6.20       3.00       7.00       0.00
SC_24967         50.00      6.20       3.00       7.00       0.00
SC_24968         50.00      6.20       3.00       7.00       0.00
SC_24969         50.00      6.20       3.00       7.00       0.00
SC_24970         50.00      6.20       3.00       7.00       0.00
SC_24971         50.00      6.20       3.00       7.00       0.00
SC_24972         50.00      6.20       3.00       7.00       0.00
SC_24973         50.00      6.20       3.00       7.00       0.00
SC_24974         50.00      6.20       3.00       7.00       0.00
SC_25224         50.00      6.20       3.00       7.00       0.00
SC_25225         50.00      6.20       3.00       7.00       0.00
SC_25226         50.00      6.20       3.00       7.00       0.00
SC_25227         50.00      6.20       3.00       7.00       0.00
SC_25228         50.00      6.20       3.00       7.00       0.00
SC_25229         50.00      6.20       3.00       7.00       0.00
SC_25230         50.00      6.20       3.00       7.00       0.00
SC_25231         50.00      6.20       3.00       7.00       0.00
SC_25232         50.00      6.20       3.00       7.00       0.00
SC_25233         50.00      6.20       3.00       7.00       0.00
SC_25234         50.00      6.20       3.00       7.00       0.00
SC_25235         50.00      6.20       3.00       7.00       0.00
SC_25236         50.00      6.20       3.00       7.00       0.00
SC_25237         50.00      6.20       3.00       7.00       0.00
SC_25238         50.00      6.20       3.00       7.00       0.00
SC_25239         50.00      6.20       3.00       7.00       0.00
SC_25240         50.00      6.20       3.00       7.00       0.00
SC_25241         50.00      6.20       3.00       7.00       0.00
SC_25242         50.00      6.20       3.00       7.00       0.00
SC_25243         50.00      6.20       3.00       7.00       0.00
SC_25244         50.00      6.20       3.00       7.00       0.00
SC_25245         50.00      6.20       3.00       7.00       0.00
SC_25246         50.00      6.20       3.00       7.00       0.00
SC_25247         50.00      6.20       3.00       7.00       0.00
SC_25248         50.00      6.20       3.00       7.00       0.00
SC_25249         50.00      6.20       3.00       7.00       0.00
SC_25250         50.00      6.20       3.00       7.00       0.00
SC_25251         50.00      6.20       3.00       7.00       0.00
SC_25252         50.00      6.20       3.00       7.00       0.00
SC_25253         50.00      6.20       3.00       7.00       0.00
SC_25501         50.00      6.20       3.00       7.00       0.00
SC_25502         50.00      6.20       3.00       7.00       0.00
SC_25503         50.00      6.20       3.00       7.00       0.00
SC_25504         50.00      6.20       3.00       7.00       0.00
SC_25505         50.00      6.20       3.00       7.00       0.00
SC_25506         50.00      6.20       3.00       7.00       0.00
SC_25507         50.00      6.20       3.00       7.00       0.00
SC_25508         50.00      6.20       3.00       7.00       0.00
SC_25509         50.00      6.20       3.00       7.00       0.00
SC_25510         50.00      6.20       3.00       7.00       0.00
SC_25511         50.00      6.20       3.00       7.00       0.00
SC_25512         50.00      6.20       3.00       7.00       0.00
SC_25513         50.00      6.20       3.00       7.00       0.00
SC_25514         50.00      6.20       3.00       7.00       0.00
SC_25515         50.00      6.20       3.00       7.00       0.00
SC_25516         50.00      6.20       3.00       7.00       0.00
SC_25517         50.00      6.20       3.00       7.00       0.00
SC_25518         50.00      6.20       3.00       7.00       0.00
SC_25519         50.00      6.20       3.00       7.00       0.00
SC_25520         50.00      6.20       3.00       7.00       0.00
SC_25521         50.00      6.20       3.00       7.00       0.00
SC_25522         50.00      6.20       3.00       7.00       0.00
SC_25523         50.00      6.20       3.00       7.00       0.00
SC_25524         50.00      6.20       3.00       7.00       0.00
SC_25525         50.00      6.20       3.00       7.00       0.00
SC_25526         50.00      6.20       3.00       7.00       0.00
SC_25527         50.00      6.20       3.00       7.00       0.00
SC_25528         50.00      6.20       3.00       7.00       0.00
SC_25529         50.00      6.20       3.00       7.00       0.00
SC_25530         50.00      6.20       3.00       7.00       0.00
SC_25531         50.00      6.20       3.00       7.00       0.00
SC_25532         50.00      6.20       3.00       7.00       0.00
SC_25778         50.00      6.20       3.00       7.00       0.00
SC_25779         50.00      6.20       3.00       7.00       0.00
SC_25780         50.00      6.20       3.00       7.00       0.00
SC_25781         50.00      6.20       3.00       7.00       0.00
SC_25782         50.00      6.20       3.00       7.00       0.00
SC_25783         50.00      6.20       3.00       7.00       0.00
SC_25784         50.00      6.20       3.00       7.00       0.00
SC_25785         50.00      6.20       3.00       7.00       0.00
SC_25786         50.00      6.20       3.00       7.00       0.00
SC_25787         50.00      6.20       3.00       7.00       0.00
SC_25788         50.00      6.20       3.00       7.00       0.00
SC_25789         50.00      6.20       3.00       7.00       0.00
SC_25790         50.00      6.20       3.00       7.00       0.00
SC_25791         50.00      6.20       3.00       7.00       0.00
SC_25792         50.00      6.20       3.00       7.00       0.00
SC_25793         50.00      6.20       3.00       7.00       0.00
SC_25794         50.00      6.20       3.00       7.00       0.00
SC_25795         50.00      6.20       3.00       7.00       0.00
SC_25796         50.00      6.20       3.00       7.00       0.00
SC_25797         50.00      6.20       3.00       7.00       0.00
SC_25798         50.00      6.20       3.00       7.00       0.00
SC_25799         50.00      6.20       3.00       7.00       0.00
SC_25800         50.00      6.20       3.00       7.00       0.00
SC_25801         50.00      6.20       3.00       7.00       0.00
SC_25802         50.00      6.20       3.00       7.00       0.00
SC_25803         50.00      6.20       3.00       7.00       0.00
SC_25804         50.00      6.20       3.00       7.00       0.00
SC_25805         50.00      6.20       3.00       7.00       0.00
SC_25806         50.00      6.20       3.00       7.00       0.00
SC_25807         50.00      6.20       3.00       7.00       0.00
SC_25808         50.00      6.20       3.00       7.00       0.00
SC_25809         50.00      6.20       3.00       7.00       0.00
SC_25810         50.00      6.20       3.00       7.00       0.00
SC_26054         50.00      6.20       3.00       7.00       0.00
SC_26055         50.00      6.20       3.00       7.00       0.00
SC_26057         50.00      6.20       3.00       7.00       0.00
SC_26058         50.00      6.20       3.00       7.00       0.00
SC_26059         50.00      6.20       3.00       7.00       0.00
SC_26060         50.00      6.20       3.00       7.00       0.00
SC_26061         50.00      6.20       3.00       7.00       0.00
SC_26062         50.00      6.20       3.00       7.00       0.00
SC_26063         50.00      6.20       3.00       7.00       0.00
SC_26064         50.00      6.20       3.00       7.00       0.00
SC_26065         50.00      6.20       3.00       7.00       0.00
SC_26066         50.00      6.20       3.00       7.00       0.00
SC_26067         50.00      6.20       3.00       7.00       0.00
SC_26068         50.00      6.20       3.00       7.00       0.00
SC_26069         50.00      6.20       3.00       7.00       0.00
SC_26070         50.00      6.20       3.00       7.00       0.00
SC_26071         50.00      6.20       3.00       7.00       0.00
SC_26072         50.00      6.20       3.00       7.00       0.00
SC_26073         50.00      6.20       3.00       7.00       0.00
SC_26074         50.00      6.20       3.00       7.00       0.00
SC_26075         50.00      6.20       3.00       7.00       0.00
SC_26076         50.00      6.20       3.00       7.00       0.00
SC_26077         50.00      6.20       3.00       7.00       0.00
SC_26078         50.00      6.20       3.00       7.00       0.00
SC_26079         50.00      6.20       3.00       7.00       0.00
SC_26080         50.00      6.20       3.00       7.00       0.00
SC_26081         50.00      6.20       3.00       7.00       0.00
SC_26082         50.00      6.20       3.00       7.00       0.00
SC_26083         50.00      6.20       3.00       7.00       0.00
SC_26084         50.00      6.20       3.00       7.00       0.00
SC_26085         50.00      6.20       3.00       7.00       0.00
SC_26086         50.00      6.20       3.00       7.00       0.00
SC_26087         50.00      6.20       3.00       7.00       0.00
SC_26336         50.00      6.20       3.00       7.00       0.00
SC_26337         50.00      6.20       3.00       7.00       0.00
SC_26338         50.00      6.20       3.00       7.00       0.00
SC_26339         50.00      6.20       3.00       7.00       0.00
SC_26340         50.00      6.20       3.00       7.00       0.00
SC_26341         50.00      6.20       3.00       7.00       0.00
SC_26342         50.00      6.20       3.00       7.00       0.00
SC_26343         50.00      6.20       3.00       7.00       0.00
SC_26344         50.00      6.20       3.00       7.00       0.00
SC_26345         50.00      6.20       3.00       7.00       0.00
SC_26346         50.00      6.20       3.00       7.00       0.00
SC_26347         50.00      6.20       3.00       7.00       0.00
SC_26348         50.00      6.20       3.00       7.00       0.00
SC_26349         50.00      6.20       3.00       7.00       0.00
SC_26350         50.00      6.20       3.00       7.00       0.00
SC_26351         50.00      6.20       3.00       7.00       0.00
SC_26352         50.00      6.20       3.00       7.00       0.00
SC_26353         50.00      6.20       3.00       7.00       0.00
SC_26354         50.00      6.20       3.00       7.00       0.00
SC_26355         50.00      6.20       3.00       7.00       0.00
SC_26356         50.00      6.20       3.00       7.00       0.00
SC_26357         50.00      6.20       3.00       7.00       0.00
SC_26358         50.00      6.20       3.00       7.00       0.00
SC_26359         50.00      6.20       3.00       7.00       0.00
SC_26360         50.00      6.20       3.00       7.00       0.00
SC_26361         50.00      6.20       3.00       7.00       0.00
SC_26362         50.00      6.20       3.00       7.00       0.00
SC_26363         50.00      6.20       3.00       7.00       0.00
SC_26364         50.00      6.20       3.00       7.00       0.00
SC_26368         50.00      6.20       3.00       7.00       0.00
SC_26369         50.00      6.20       3.00       7.00       0.00
SC_26370         50.00      6.20       3.00       7.00       0.00
SC_26613         50.00      6.20       3.00       7.00       0.00
SC_26614         50.00      6.20       3.00       7.00       0.00
SC_26615         50.00      6.20       3.00       7.00       0.00
SC_26616         50.00      6.20       3.00       7.00       0.00
SC_26617         50.00      6.20       3.00       7.00       0.00
SC_26618         50.00      6.20       3.00       7.00       0.00
SC_26619         50.00      6.20       3.00       7.00       0.00
SC_26620         50.00      6.20       3.00       7.00       0.00
SC_26621         50.00      6.20       3.00       7.00       0.00
SC_26622         50.00      6.20       3.00       7.00       0.00
SC_26623         50.00      6.20       3.00       7.00       0.00
SC_26624         50.00      6.20       3.00       7.00       0.00
SC_26625         50.00      6.20       3.00       7.00       0.00
SC_26626         50.00      6.20       3.00       7.00       0.00
SC_26627         50.00      6.20       3.00       7.00       0.00
SC_26628         50.00      6.20       3.00       7.00       0.00
SC_26629         50.00      6.20       3.00       7.00       0.00
SC_26630         50.00      6.20       3.00       7.00       0.00
SC_26631         50.00      6.20       3.00       7.00       0.00
SC_26632         50.00      6.20       3.00       7.00       0.00
SC_26633         50.00      6.20       3.00       7.00       0.00
SC_26634         50.00      6.20       3.00       7.00       0.00
SC_26635         50.00      6.20       3.00       7.00       0.00
SC_26636         50.00      6.20       3.00       7.00       0.00
SC_26637         50.00      6.20       3.00       7.00       0.00
SC_26638         50.00      6.20       3.00       7.00       0.00
SC_26639         50.00      6.20       3.00       7.00       0.00
SC_26640         50.00      6.20       3.00       7.00       0.00
SC_26641         50.00      6.20       3.00       7.00       0.00
SC_26642         50.00      6.20       3.00       7.00       0.00
SC_26643         50.00      6.20       3.00       7.00       0.00
SC_26644         50.00      6.20       3.00       7.00       0.00
SC_26645         50.00      6.20       3.00       7.00       0.00
SC_26646         50.00      6.20       3.00       7.00       0.00
SC_26647         50.00      6.20       3.00       7.00       0.00
SC_26648         50.00      6.20       3.00       7.00       0.00
SC_26649         50.00      6.20       3.00       7.00       0.00
SC_26650         50.00      6.20       3.00       7.00       0.00
SC_26651         50.00      6.20       3.00       7.00       0.00
SC_26652         50.00      6.20       3.00       7.00       0.00
SC_26653         50.00      6.20       3.00       7.00       0.00
SC_26654         50.00      6.20       3.00       7.00       0.00
SC_26655         50.00      6.20       3.00       7.00       0.00
SC_26656         50.00      6.20       3.00       7.00       0.00
SC_26657         50.00      6.20       3.00       7.00       0.00
SC_26658         50.00      6.20       3.00       7.00       0.00
SC_26664         50.00      6.20       3.00       7.00       0.00
SC_26888         50.00      6.20       3.00       7.00       0.00
SC_26889         50.00      6.20       3.00       7.00       0.00
SC_26890         50.00      6.20       3.00       7.00       0.00
SC_26891         50.00      6.20       3.00       7.00       0.00
SC_26892         50.00      6.20       3.00       7.00       0.00
SC_26893         50.00      6.20       3.00       7.00       0.00
SC_26894         50.00      6.20       3.00       7.00       0.00
SC_26895         50.00      6.20       3.00       7.00       0.00
SC_26896         50.00      6.20       3.00       7.00       0.00
SC_26897         50.00      6.20       3.00       7.00       0.00
SC_26898         50.00      6.20       3.00       7.00       0.00
SC_26899         50.00      6.20       3.00       7.00       0.00
SC_26900         50.00      6.20       3.00       7.00       0.00
SC_26901         50.00      6.20       3.00       7.00       0.00
SC_26902         50.00      6.20       3.00       7.00       0.00
SC_26903         50.00      6.20       3.00       7.00       0.00
SC_26904         50.00      6.20       3.00       7.00       0.00
SC_26905         50.00      6.20       3.00       7.00       0.00
SC_26906         50.00      6.20       3.00       7.00       0.00
SC_26907         50.00      6.20       3.00       7.00       0.00
SC_26908         50.00      6.20       3.00       7.00       0.00
SC_26909         50.00      6.20       3.00       7.00       0.00
SC_26910         50.00      6.20       3.00       7.00       0.00
SC_26911         50.00      6.20       3.00       7.00       0.00
SC_26912         50.00      6.20       3.00       7.00       0.00
SC_26913         50.00      6.20       3.00       7.00       0.00
SC_26914         50.00      6.20       3.00       7.00       0.00
SC_26915         50.00      6.20       3.00       7.00       0.00
SC_26916         50.00      6.20       3.00       7.00       0.00
SC_26917         50.00      6.20       3.00       7.00       0.00
SC_26918         50.00      6.20       3.00       7.00       0.00
SC_26919         50.00      6.20       3.00       7.00       0.00
SC_26920         50.00      6.20       3.00       7.00       0.00
SC_26921         50.00      6.20       3.00       7.00       0.00
SC_26922         50.00      6.20       3.00       7.00       0.00
SC_26923         50.00      6.20       3.00       7.00       0.00
SC_26924         50.00      6.20       3.00       7.00       0.00
SC_26925         50.00      6.20       3.00       7.00       0.00
SC_26926         50.00      6.20       3.00       7.00       0.00
SC_26927         50.00      6.20       3.00       7.00       0.00
SC_26928         50.00      6.20       3.00       7.00       0.00
SC_26929         50.00      6.20       3.00       7.00       0.00
SC_26930         50.00      6.20       3.00       7.00       0.00
SC_26931         50.00      6.20       3.00       7.00       0.00
SC_26932         50.00      6.20       3.00       7.00       0.00
SC_26933         50.00      6.20       3.00       7.00       0.00
SC_26934         50.00      6.20       3.00       7.00       0.00
SC_26939         50.00      6.20       3.00       7.00       0.00
SC_26940         50.00      6.20       3.00       7.00       0.00
SC_26941         50.00      6.20       3.00       7.00       0.00
SC_27163         50.00      6.20       3.00       7.00       0.00
SC_27164         50.00      6.20       3.00       7.00       0.00
SC_27165         50.00      6.20       3.00       7.00       0.00
SC_27166         50.00      6.20       3.00       7.00       0.00
SC_27167         50.00      6.20       3.00       7.00       0.00
SC_27168         50.00      6.20       3.00       7.00       0.00
SC_27169         50.00      6.20       3.00       7.00       0.00
SC_27170         50.00      6.20       3.00       7.00       0.00
SC_27171         50.00      6.20       3.00       7.00       0.00
SC_27172         50.00      6.20       3.00       7.00       0.00
SC_27173         50.00      6.20       3.00       7.00       0.00
SC_27174         50.00      6.20       3.00       7.00       0.00
SC_27175         50.00      6.20       3.00       7.00       0.00
SC_27176         50.00      6.20       3.00       7.00       0.00
SC_27177         50.00      6.20       3.00       7.00       0.00
SC_27178         50.00      6.20       3.00       7.00       0.00
SC_27179         50.00      6.20       3.00       7.00       0.00
SC_27180         50.00      6.20       3.00       7.00       0.00
SC_27181         50.00      6.20       3.00       7.00       0.00
SC_27182         50.00      6.20       3.00       7.00       0.00
SC_27183         50.00      6.20       3.00       7.00       0.00
SC_27184         50.00      6.20       3.00       7.00       0.00
SC_27185         50.00      6.20       3.00       7.00       0.00
SC_27186         50.00      6.20       3.00       7.00       0.00
SC_27187         50.00      6.20       3.00       7.00       0.00
SC_27188         50.00      6.20       3.00       7.00       0.00
SC_27189         50.00      6.20       3.00       7.00       0.00
SC_27190         50.00      6.20       3.00       7.00       0.00
SC_27191         50.00      6.20       3.00       7.00       0.00
SC_27192         50.00      6.20       3.00       7.00       0.00
SC_27193         50.00      6.20       3.00       7.00       0.00
SC_27194         50.00      6.20       3.00       7.00       0.00
SC_27195         50.00      6.20       3.00       7.00       0.00
SC_27196         50.00      6.20       3.00       7.00       0.00
SC_27197         50.00      6.20       3.00       7.00       0.00
SC_27198         50.00      6.20       3.00       7.00       0.00
SC_27199         50.00      6.20       3.00       7.00       0.00
SC_27200         50.00      6.20       3.00       7.00       0.00
SC_27201         50.00      6.20       3.00       7.00       0.00
SC_27202         50.00      6.20       3.00       7.00       0.00
SC_27203         50.00      6.20       3.00       7.00       0.00
SC_27204         50.00      6.20       3.00       7.00       0.00
SC_27205         50.00      6.20       3.00       7.00       0.00
SC_27206         50.00      6.20       3.00       7.00       0.00
SC_27207         50.00      6.20       3.00       7.00       0.00
SC_27208         50.00      6.20       3.00       7.00       0.00
SC_27209         50.00      6.20       3.00       7.00       0.00
SC_27212         50.00      6.20       3.00       7.00       0.00
SC_27213         50.00      6.20       3.00       7.00       0.00
SC_27214         50.00      6.20       3.00       7.00       0.00
SC_27215         50.00      6.20       3.00       7.00       0.00
SC_27216         50.00      6.20       3.00       7.00       0.00
SC_27217         50.00      6.20       3.00       7.00       0.00
SC_27436         50.00      6.20       3.00       7.00       0.00
SC_27437         50.00      6.20       3.00       7.00       0.00
SC_27438         50.00      6.20       3.00       7.00       0.00
SC_27439         50.00      6.20       3.00       7.00       0.00
SC_27440         50.00      6.20       3.00       7.00       0.00
SC_27441         50.00      6.20       3.00       7.00       0.00
SC_27442         50.00      6.20       3.00       7.00       0.00
SC_27443         50.00      6.20       3.00       7.00       0.00
SC_27444         50.00      6.20       3.00       7.00       0.00
SC_27445         50.00      6.20       3.00       7.00       0.00
SC_27446         50.00      6.20       3.00       7.00       0.00
SC_27447         50.00      6.20       3.00       7.00       0.00
SC_27448         50.00      6.20       3.00       7.00       0.00
SC_27449         50.00      6.20       3.00       7.00       0.00
SC_27450         50.00      6.20       3.00       7.00       0.00
SC_27451         50.00      6.20       3.00       7.00       0.00
SC_27452         50.00      6.20       3.00       7.00       0.00
SC_27453         50.00      6.20       3.00       7.00       0.00
SC_27454         50.00      6.20       3.00       7.00       0.00
SC_27455         50.00      6.20       3.00       7.00       0.00
SC_27456         50.00      6.20       3.00       7.00       0.00
SC_27457         50.00      6.20       3.00       7.00       0.00
SC_27458         50.00      6.20       3.00       7.00       0.00
SC_27459         50.00      6.20       3.00       7.00       0.00
SC_27460         50.00      6.20       3.00       7.00       0.00
SC_27461         50.00      6.20       3.00       7.00       0.00
SC_27462         50.00      6.20       3.00       7.00       0.00
SC_27463         50.00      6.20       3.00       7.00       0.00
SC_27464         50.00      6.20       3.00       7.00       0.00
SC_27465         50.00      6.20       3.00       7.00       0.00
SC_27466         50.00      6.20       3.00       7.00       0.00
SC_27467         50.00      6.20       3.00       7.00       0.00
SC_27468         50.00      6.20       3.00       7.00       0.00
SC_27469         50.00      6.20       3.00       7.00       0.00
SC_27470         50.00      6.20       3.00       7.00       0.00
SC_27471         50.00      6.20       3.00       7.00       0.00
SC_27472         50.00      6.20       3.00       7.00       0.00
SC_27473         50.00      6.20       3.00       7.00       0.00
SC_27474         50.00      6.20       3.00       7.00       0.00
SC_27475         50.00      6.20       3.00       7.00       0.00
SC_27476         50.00      6.20       3.00       7.00       0.00
SC_27477         50.00      6.20       3.00       7.00       0.00
SC_27478         50.00      6.20       3.00       7.00       0.00
SC_27479         50.00      6.20       3.00       7.00       0.00
SC_27480         50.00      6.20       3.00       7.00       0.00
SC_27481         50.00      6.20       3.00       7.00       0.00
SC_27482         50.00      6.20       3.00       7.00       0.00
SC_27483         50.00      6.20       3.00       7.00       0.00
SC_27484         50.00      6.20       3.00       7.00       0.00
SC_27485         50.00      6.20       3.00       7.00       0.00
SC_27486         50.00      6.20       3.00       7.00       0.00
SC_27487         50.00      6.20       3.00       7.00       0.00
SC_27488         50.00      6.20       3.00       7.00       0.00
SC_27489         50.00      6.20       3.00       7.00       0.00
SC_27490         50.00      6.20       3.00       7.00       0.00
SC_27709         50.00      6.20       3.00       7.00       0.00
SC_27710         50.00      6.20       3.00       7.00       0.00
SC_27711         50.00      6.20       3.00       7.00       0.00
SC_27712         50.00      6.20       3.00       7.00       0.00
SC_27713         50.00      6.20       3.00       7.00       0.00
SC_27714         50.00      6.20       3.00       7.00       0.00
SC_27715         50.00      6.20       3.00       7.00       0.00
SC_27716         50.00      6.20       3.00       7.00       0.00
SC_27717         50.00      6.20       3.00       7.00       0.00
SC_27718         50.00      6.20       3.00       7.00       0.00
SC_27719         50.00      6.20       3.00       7.00       0.00
SC_27720         50.00      6.20       3.00       7.00       0.00
SC_27721         50.00      6.20       3.00       7.00       0.00
SC_27722         50.00      6.20       3.00       7.00       0.00
SC_27723         50.00      6.20       3.00       7.00       0.00
SC_27724         50.00      6.20       3.00       7.00       0.00
SC_27725         50.00      6.20       3.00       7.00       0.00
SC_27726         50.00      6.20       3.00       7.00       0.00
SC_27727         50.00      6.20       3.00       7.00       0.00
SC_27728         50.00      6.20       3.00       7.00       0.00
SC_27729         50.00      6.20       3.00       7.00       0.00
SC_27730         50.00      6.20       3.00       7.00       0.00
SC_27731         50.00      6.20       3.00       7.00       0.00
SC_27732         50.00      6.20       3.00       7.00       0.00
SC_27733         50.00      6.20       3.00       7.00       0.00
SC_27734         50.00      6.20       3.00       7.00       0.00
SC_27735         50.00      6.20       3.00       7.00       0.00
SC_27736         50.00      6.20       3.00       7.00       0.00
SC_27737         50.00      6.20       3.00       7.00       0.00
SC_27738         50.00      6.20       3.00       7.00       0.00
SC_27739         50.00      6.20       3.00       7.00       0.00
SC_27740         50.00      6.20       3.00       7.00       0.00
SC_27741         50.00      6.20       3.00       7.00       0.00
SC_27742         50.00      6.20       3.00       7.00       0.00
SC_27743         50.00      6.20       3.00       7.00       0.00
SC_27744         50.00      6.20       3.00       7.00       0.00
SC_27745         50.00      6.20       3.00       7.00       0.00
SC_27746         50.00      6.20       3.00       7.00       0.00
SC_27747         50.00      6.20       3.00       7.00       0.00
SC_27748         50.00      6.20       3.00       7.00       0.00
SC_27749         50.00      6.20       3.00       7.00       0.00
SC_27750         50.00      6.20       3.00       7.00       0.00
SC_27751         50.00      6.20       3.00       7.00       0.00
SC_27752         50.00      6.20       3.00       7.00       0.00
SC_27753         50.00      6.20       3.00       7.00       0.00
SC_27754         50.00      6.20       3.00       7.00       0.00
SC_27755         50.00      6.20       3.00       7.00       0.00
SC_27756         50.00      6.20       3.00       7.00       0.00
SC_27757         50.00      6.20       3.00       7.00       0.00
SC_27758         50.00      6.20       3.00       7.00       0.00
SC_27759         50.00      6.20       3.00       7.00       0.00
SC_27760         50.00      6.20       3.00       7.00       0.00
SC_27761         50.00      6.20       3.00       7.00       0.00
SC_27981         50.00      6.20       3.00       7.00       0.00
SC_27982         50.00      6.20       3.00       7.00       0.00
SC_27983         50.00      6.20       3.00       7.00       0.00
SC_27984         50.00      6.20       3.00       7.00       0.00
SC_27985         50.00      6.20       3.00       7.00       0.00
SC_27986         50.00      6.20       3.00       7.00       0.00
SC_27987         50.00      6.20       3.00       7.00       0.00
SC_27988         50.00      6.20       3.00       7.00       0.00
SC_27989         50.00      6.20       3.00       7.00       0.00
SC_27990         50.00      6.20       3.00       7.00       0.00
SC_27991         50.00      6.20       3.00       7.00       0.00
SC_27992         50.00      6.20       3.00       7.00       0.00
SC_27993         50.00      6.20       3.00       7.00       0.00
SC_27994         50.00      6.20       3.00       7.00       0.00
SC_27995         50.00      6.20       3.00       7.00       0.00
SC_27996         50.00      6.20       3.00       7.00       0.00
SC_27997         50.00      6.20       3.00       7.00       0.00
SC_27998         50.00      6.20       3.00       7.00       0.00
SC_27999         50.00      6.20       3.00       7.00       0.00
SC_28000         50.00      6.20       3.00       7.00       0.00
SC_28001         50.00      6.20       3.00       7.00       0.00
SC_28002         50.00      6.20       3.00       7.00       0.00
SC_28003         50.00      6.20       3.00       7.00       0.00
SC_28004         50.00      6.20       3.00       7.00       0.00
SC_28005         50.00      6.20       3.00       7.00       0.00
SC_28006         50.00      6.20       3.00       7.00       0.00
SC_28007         50.00      6.20       3.00       7.00       0.00
SC_28008         50.00      6.20       3.00       7.00       0.00
SC_28009         50.00      6.20       3.00       7.00       0.00
SC_28010         50.00      6.20       3.00       7.00       0.00
SC_28011         50.00      6.20       3.00       7.00       0.00
SC_28012         50.00      6.20       3.00       7.00       0.00
SC_28013         50.00      6.20       3.00       7.00       0.00
SC_28014         50.00      6.20       3.00       7.00       0.00
SC_28015         50.00      6.20       3.00       7.00       0.00
SC_28016         50.00      6.20       3.00       7.00       0.00
SC_28017         50.00      6.20       3.00       7.00       0.00
SC_28018         50.00      6.20       3.00       7.00       0.00
SC_28019         50.00      6.20       3.00       7.00       0.00
SC_28020         50.00      6.20       3.00       7.00       0.00
SC_28021         50.00      6.20       3.00       7.00       0.00
SC_28022         50.00      6.20       3.00       7.00       0.00
SC_28023         50.00      6.20       3.00       7.00       0.00
SC_28024         50.00      6.20       3.00       7.00       0.00
SC_28025         50.00      6.20       3.00       7.00       0.00
SC_28026         50.00      6.20       3.00       7.00       0.00
SC_28027         50.00      6.20       3.00       7.00       0.00
SC_28028         50.00      6.20       3.00       7.00       0.00
SC_28029         50.00      6.20       3.00       7.00       0.00
SC_28030         50.00      6.20       3.00       7.00       0.00
SC_28031         50.00      6.20       3.00       7.00       0.00
SC_28032         50.00      6.20       3.00       7.00       0.00
SC_28253         50.00      6.20       3.00       7.00       0.00
SC_28254         50.00      6.20       3.00       7.00       0.00
SC_28255         50.00      6.20       3.00       7.00       0.00
SC_28256         50.00      6.20       3.00       7.00       0.00
SC_28257         50.00      6.20       3.00       7.00       0.00
SC_28258         50.00      6.20       3.00       7.00       0.00
SC_28259         50.00      6.20       3.00       7.00       0.00
SC_28260         50.00      6.20       3.00       7.00       0.00
SC_28261         50.00      6.20       3.00       7.00       0.00
SC_28262         50.00      6.20       3.00       7.00       0.00
SC_28263         50.00      6.20       3.00       7.00       0.00
SC_28264         50.00      6.20       3.00       7.00       0.00
SC_28265         50.00      6.20       3.00       7.00       0.00
SC_28266         50.00      6.20       3.00       7.00       0.00
SC_28267         50.00      6.20       3.00       7.00       0.00
SC_28268         50.00      6.20       3.00       7.00       0.00
SC_28269         50.00      6.20       3.00       7.00       0.00
SC_28270         50.00      6.20       3.00       7.00       0.00
SC_28271         50.00      6.20       3.00       7.00       0.00
SC_28272         50.00      6.20       3.00       7.00       0.00
SC_28273         50.00      6.20       3.00       7.00       0.00
SC_28274         50.00      6.20       3.00       7.00       0.00
SC_28275         50.00      6.20       3.00       7.00       0.00
SC_28276         50.00      6.20       3.00       7.00       0.00
SC_28277         50.00      6.20       3.00       7.00       0.00
SC_28278         50.00      6.20       3.00       7.00       0.00
SC_28279         50.00      6.20       3.00       7.00       0.00
SC_28280         50.00      6.20       3.00       7.00       0.00
SC_28281         50.00      6.20       3.00       7.00       0.00
SC_28282         50.00      6.20       3.00       7.00       0.00
SC_28283         50.00      6.20       3.00       7.00       0.00
SC_28284         50.00      6.20       3.00       7.00       0.00
SC_28285         50.00      6.20       3.00       7.00       0.00
SC_28286         50.00      6.20       3.00       7.00       0.00
SC_28287         50.00      6.20       3.00       7.00       0.00
SC_28288         50.00      6.20       3.00       7.00       0.00
SC_28289         50.00      6.20       3.00       7.00       0.00
SC_28290         50.00      6.20       3.00       7.00       0.00
SC_28291         50.00      6.20       3.00       7.00       0.00
SC_28292         50.00      6.20       3.00       7.00       0.00
SC_28293         50.00      6.20       3.00       7.00       0.00
SC_28294         50.00      6.20       3.00       7.00       0.00
SC_28295         50.00      6.20       3.00       7.00       0.00
SC_28296         50.00      6.20       3.00       7.00       0.00
SC_28297         50.00      6.20       3.00       7.00       0.00
SC_28298         50.00      6.20       3.00       7.00       0.00
SC_28299         50.00      6.20       3.00       7.00       0.00
SC_28300         50.00      6.20       3.00       7.00       0.00
SC_28301         50.00      6.20       3.00       7.00       0.00
SC_28302         50.00      6.20       3.00       7.00       0.00
SC_28303         50.00      6.20       3.00       7.00       0.00
SC_28304         50.00      6.20       3.00       7.00       0.00
SC_28305         50.00      6.20       3.00       7.00       0.00
SC_28331         50.00      6.20       3.00       7.00       0.00
SC_28526         50.00      6.20       3.00       7.00       0.00
SC_28527         50.00      6.20       3.00       7.00       0.00
SC_28528         50.00      6.20       3.00       7.00       0.00
SC_28529         50.00      6.20       3.00       7.00       0.00
SC_28530         50.00      6.20       3.00       7.00       0.00
SC_28531         50.00      6.20       3.00       7.00       0.00
SC_28532         50.00      6.20       3.00       7.00       0.00
SC_28533         50.00      6.20       3.00       7.00       0.00
SC_28534         50.00      6.20       3.00       7.00       0.00
SC_28535         50.00      6.20       3.00       7.00       0.00
SC_28536         50.00      6.20       3.00       7.00       0.00
SC_28537         50.00      6.20       3.00       7.00       0.00
SC_28538         50.00      6.20       3.00       7.00       0.00
SC_28539         50.00      6.20       3.00       7.00       0.00
SC_28540         50.00      6.20       3.00       7.00       0.00
SC_28541         50.00      6.20       3.00       7.00       0.00
SC_28542         50.00      6.20       3.00       7.00       0.00
SC_28543         50.00      6.20       3.00       7.00       0.00
SC_28544         50.00      6.20       3.00       7.00       0.00
SC_28545         50.00      6.20       3.00       7.00       0.00
SC_28546         50.00      6.20       3.00       7.00       0.00
SC_28547         50.00      6.20       3.00       7.00       0.00
SC_28548         50.00      6.20       3.00       7.00       0.00
SC_28549         50.00      6.20       3.00       7.00       0.00
SC_28550         50.00      6.20       3.00       7.00       0.00
SC_28551         50.00      6.20       3.00       7.00       0.00
SC_28552         50.00      6.20       3.00       7.00       0.00
SC_28553         50.00      6.20       3.00       7.00       0.00
SC_28554         50.00      6.20       3.00       7.00       0.00
SC_28555         50.00      6.20       3.00       7.00       0.00
SC_28556         50.00      6.20       3.00       7.00       0.00
SC_28557         50.00      6.20       3.00       7.00       0.00
SC_28558         50.00      6.20       3.00       7.00       0.00
SC_28559         50.00      6.20       3.00       7.00       0.00
SC_28560         50.00      6.20       3.00       7.00       0.00
SC_28561         50.00      6.20       3.00       7.00       0.00
SC_28562         50.00      6.20       3.00       7.00       0.00
SC_28563         50.00      6.20       3.00       7.00       0.00
SC_28564         50.00      6.20       3.00       7.00       0.00
SC_28565         50.00      6.20       3.00       7.00       0.00
SC_28566         50.00      6.20       3.00       7.00       0.00
SC_28567         50.00      6.20       3.00       7.00       0.00
SC_28568         50.00      6.20       3.00       7.00       0.00
SC_28569         50.00      6.20       3.00       7.00       0.00
SC_28570         50.00      6.20       3.00       7.00       0.00
SC_28571         50.00      6.20       3.00       7.00       0.00
SC_28572         50.00      6.20       3.00       7.00       0.00
SC_28573         50.00      6.20       3.00       7.00       0.00
SC_28574         50.00      6.20       3.00       7.00       0.00
SC_28575         50.00      6.20       3.00       7.00       0.00
SC_28576         50.00      6.20       3.00       7.00       0.00
SC_28577         50.00      6.20       3.00       7.00       0.00
SC_28578         50.00      6.20       3.00       7.00       0.00
SC_28584         50.00      6.20       3.00       7.00       0.00
SC_28602         50.00      6.20       3.00       7.00       0.00
SC_28603         50.00      6.20       3.00       7.00       0.00
SC_28801         50.00      6.20       3.00       7.00       0.00
SC_28802         50.00      6.20       3.00       7.00       0.00
SC_28803         50.00      6.20       3.00       7.00       0.00
SC_28804         50.00      6.20       3.00       7.00       0.00
SC_28805         50.00      6.20       3.00       7.00       0.00
SC_28806         50.00      6.20       3.00       7.00       0.00
SC_28807         50.00      6.20       3.00       7.00       0.00
SC_28808         50.00      6.20       3.00       7.00       0.00
SC_28809         50.00      6.20       3.00       7.00       0.00
SC_28810         50.00      6.20       3.00       7.00       0.00
SC_28811         50.00      6.20       3.00       7.00       0.00
SC_28812         50.00      6.20       3.00       7.00       0.00
SC_28813         50.00      6.20       3.00       7.00       0.00
SC_28814         50.00      6.20       3.00       7.00       0.00
SC_28815         50.00      6.20       3.00       7.00       0.00
SC_28816         50.00      6.20       3.00       7.00       0.00
SC_28817         50.00      6.20       3.00       7.00       0.00
SC_28818         50.00      6.20       3.00       7.00       0.00
SC_28819         50.00      6.20       3.00       7.00       0.00
SC_28820         50.00      6.20       3.00       7.00       0.00
SC_28821         50.00      6.20       3.00       7.00       0.00
SC_28822         50.00      6.20       3.00       7.00       0.00
SC_28823         50.00      6.20       3.00       7.00       0.00
SC_28824         50.00      6.20       3.00       7.00       0.00
SC_28825         50.00      6.20       3.00       7.00       0.00
SC_28826         50.00      6.20       3.00       7.00       0.00
SC_28827         50.00      6.20       3.00       7.00       0.00
SC_28828         50.00      6.20       3.00       7.00       0.00
SC_28829         50.00      6.20       3.00       7.00       0.00
SC_28830         50.00      6.20       3.00       7.00       0.00
SC_28831         50.00      6.20       3.00       7.00       0.00
SC_28832         50.00      6.20       3.00       7.00       0.00
SC_28833         50.00      6.20       3.00       7.00       0.00
SC_28834         50.00      6.20       3.00       7.00       0.00
SC_28835         50.00      6.20       3.00       7.00       0.00
SC_28836         50.00      6.20       3.00       7.00       0.00
SC_28837         50.00      6.20       3.00       7.00       0.00
SC_28838         50.00      6.20       3.00       7.00       0.00
SC_28839         50.00      6.20       3.00       7.00       0.00
SC_28840         50.00      6.20       3.00       7.00       0.00
SC_28841         50.00      6.20       3.00       7.00       0.00
SC_28842         50.00      6.20       3.00       7.00       0.00
SC_28843         50.00      6.20       3.00       7.00       0.00
SC_28844         50.00      6.20       3.00       7.00       0.00
SC_28845         50.00      6.20       3.00       7.00       0.00
SC_28846         50.00      6.20       3.00       7.00       0.00
SC_28847         50.00      6.20       3.00       7.00       0.00
SC_28848         50.00      6.20       3.00       7.00       0.00
SC_28849         50.00      6.20       3.00       7.00       0.00
SC_28850         50.00      6.20       3.00       7.00       0.00
SC_28851         50.00      6.20       3.00       7.00       0.00
SC_28852         50.00      6.20       3.00       7.00       0.00
SC_28853         50.00      6.20       3.00       7.00       0.00
SC_28857         50.00      6.20       3.00       7.00       0.00
SC_28858         50.00      6.20       3.00       7.00       0.00
SC_28859         50.00      6.20       3.00       7.00       0.00
SC_28863         50.00      6.20       3.00       7.00       0.00
SC_28864         50.00      6.20       3.00       7.00       0.00
SC_28865         50.00      6.20       3.00       7.00       0.00
SC_28866         50.00      6.20       3.00       7.00       0.00
SC_28867         50.00      6.20       3.00       7.00       0.00
SC_28875         50.00      6.20       3.00       7.00       0.00
SC_28876         50.00      6.20       3.00       7.00       0.00
SC_28877         50.00      6.20       3.00       7.00       0.00
SC_29079         50.00      6.20       3.00       7.00       0.00
SC_29080         50.00      6.20       3.00       7.00       0.00
SC_29081         50.00      6.20       3.00       7.00       0.00
SC_29082         50.00      6.20       3.00       7.00       0.00
SC_29083         50.00      6.20       3.00       7.00       0.00
SC_29084         50.00      6.20       3.00       7.00       0.00
SC_29085         50.00      6.20       3.00       7.00       0.00
SC_29086         50.00      6.20       3.00       7.00       0.00
SC_29087         50.00      6.20       3.00       7.00       0.00
SC_29088         50.00      6.20       3.00       7.00       0.00
SC_29089         50.00      6.20       3.00       7.00       0.00
SC_29090         50.00      6.20       3.00       7.00       0.00
SC_29091         50.00      6.20       3.00       7.00       0.00
SC_29092         50.00      6.20       3.00       7.00       0.00
SC_29093         50.00      6.20       3.00       7.00       0.00
SC_29094         50.00      6.20       3.00       7.00       0.00
SC_29095         50.00      6.20       3.00       7.00       0.00
SC_29096         50.00      6.20       3.00       7.00       0.00
SC_29097         50.00      6.20       3.00       7.00       0.00
SC_29098         50.00      6.20       3.00       7.00       0.00
SC_29099         50.00      6.20       3.00       7.00       0.00
SC_29100         50.00      6.20       3.00       7.00       0.00
SC_29101         50.00      6.20       3.00       7.00       0.00
SC_29102         50.00      6.20       3.00       7.00       0.00
SC_29103         50.00      6.20       3.00       7.00       0.00
SC_29104         50.00      6.20       3.00       7.00       0.00
SC_29105         50.00      6.20       3.00       7.00       0.00
SC_29106         50.00      6.20       3.00       7.00       0.00
SC_29107         50.00      6.20       3.00       7.00       0.00
SC_29108         50.00      6.20       3.00       7.00       0.00
SC_29109         50.00      6.20       3.00       7.00       0.00
SC_29110         50.00      6.20       3.00       7.00       0.00
SC_29111         50.00      6.20       3.00       7.00       0.00
SC_29112         50.00      6.20       3.00       7.00       0.00
SC_29113         50.00      6.20       3.00       7.00       0.00
SC_29114         50.00      6.20       3.00       7.00       0.00
SC_29115         50.00      6.20       3.00       7.00       0.00
SC_29116         50.00      6.20       3.00       7.00       0.00
SC_29117         50.00      6.20       3.00       7.00       0.00
SC_29118         50.00      6.20       3.00       7.00       0.00
SC_29119         50.00      6.20       3.00       7.00       0.00
SC_29120         50.00      6.20       3.00       7.00       0.00
SC_29121         50.00      6.20       3.00       7.00       0.00
SC_29122         50.00      6.20       3.00       7.00       0.00
SC_29123         50.00      6.20       3.00       7.00       0.00
SC_29124         50.00      6.20       3.00       7.00       0.00
SC_29125         50.00      6.20       3.00       7.00       0.00
SC_29126         50.00      6.20       3.00       7.00       0.00
SC_29127         50.00      6.20       3.00       7.00       0.00
SC_29128         50.00      6.20       3.00       7.00       0.00
SC_29129         50.00      6.20       3.00       7.00       0.00
SC_29130         50.00      6.20       3.00       7.00       0.00
SC_29131         50.00      6.20       3.00       7.00       0.00
SC_29132         50.00      6.20       3.00       7.00       0.00
SC_29133         50.00      6.20       3.00       7.00       0.00
SC_29134         50.00      6.20       3.00       7.00       0.00
SC_29135         50.00      6.20       3.00       7.00       0.00
SC_29136         50.00      6.20       3.00       7.00       0.00
SC_29137         50.00      6.20       3.00       7.00       0.00
SC_29138         50.00      6.20       3.00       7.00       0.00
SC_29139         50.00      6.20       3.00       7.00       0.00
SC_29140         50.00      6.20       3.00       7.00       0.00
SC_29141         50.00      6.20       3.00       7.00       0.00
SC_29142         50.00      6.20       3.00       7.00       0.00
SC_29143         50.00      6.20       3.00       7.00       0.00
SC_29144         50.00      6.20       3.00       7.00       0.00
SC_29148         50.00      6.20       3.00       7.00       0.00
SC_29149         50.00      6.20       3.00       7.00       0.00
SC_29150         50.00      6.20       3.00       7.00       0.00
SC_29151         50.00      6.20       3.00       7.00       0.00
SC_29152         50.00      6.20       3.00       7.00       0.00
SC_29357         50.00      6.20       3.00       7.00       0.00
SC_29358         50.00      6.20       3.00       7.00       0.00
SC_29359         50.00      6.20       3.00       7.00       0.00
SC_29360         50.00      6.20       3.00       7.00       0.00
SC_29361         50.00      6.20       3.00       7.00       0.00
SC_29362         50.00      6.20       3.00       7.00       0.00
SC_29363         50.00      6.20       3.00       7.00       0.00
SC_29364         50.00      6.20       3.00       7.00       0.00
SC_29365         50.00      6.20       3.00       7.00       0.00
SC_29366         50.00      6.20       3.00       7.00       0.00
SC_29367         50.00      6.20       3.00       7.00       0.00
SC_29368         50.00      6.20       3.00       7.00       0.00
SC_29369         50.00      6.20       3.00       7.00       0.00
SC_29370         50.00      6.20       3.00       7.00       0.00
SC_29371         50.00      6.20       3.00       7.00       0.00
SC_29372         50.00      6.20       3.00       7.00       0.00
SC_29373         50.00      6.20       3.00       7.00       0.00
SC_29374         50.00      6.20       3.00       7.00       0.00
SC_29375         50.00      6.20       3.00       7.00       0.00
SC_29376         50.00      6.20       3.00       7.00       0.00
SC_29377         50.00      6.20       3.00       7.00       0.00
SC_29378         50.00      6.20       3.00       7.00       0.00
SC_29379         50.00      6.20       3.00       7.00       0.00
SC_29380         50.00      6.20       3.00       7.00       0.00
SC_29381         50.00      6.20       3.00       7.00       0.00
SC_29382         50.00      6.20       3.00       7.00       0.00
SC_29383         50.00      6.20       3.00       7.00       0.00
SC_29384         50.00      6.20       3.00       7.00       0.00
SC_29385         50.00      6.20       3.00       7.00       0.00
SC_29386         50.00      6.20       3.00       7.00       0.00
SC_29387         50.00      6.20       3.00       7.00       0.00
SC_29388         50.00      6.20       3.00       7.00       0.00
SC_29389         50.00      6.20       3.00       7.00       0.00
SC_29390         50.00      6.20       3.00       7.00       0.00
SC_29391         50.00      6.20       3.00       7.00       0.00
SC_29392         50.00      6.20       3.00       7.00       0.00
SC_29393         50.00      6.20       3.00       7.00       0.00
SC_29394         50.00      6.20       3.00       7.00       0.00
SC_29395         50.00      6.20       3.00       7.00       0.00
SC_29396         50.00      6.20       3.00       7.00       0.00
SC_29397         50.00      6.20       3.00       7.00       0.00
SC_29398         50.00      6.20       3.00       7.00       0.00
SC_29399         50.00      6.20       3.00       7.00       0.00
SC_29400         50.00      6.20       3.00       7.00       0.00
SC_29401         50.00      6.20       3.00       7.00       0.00
SC_29402         50.00      6.20       3.00       7.00       0.00
SC_29403         50.00      6.20       3.00       7.00       0.00
SC_29404         50.00      6.20       3.00       7.00       0.00
SC_29405         50.00      6.20       3.00       7.00       0.00
SC_29406         50.00      6.20       3.00       7.00       0.00
SC_29407         50.00      6.20       3.00       7.00       0.00
SC_29408         50.00      6.20       3.00       7.00       0.00
SC_29409         50.00      6.20       3.00       7.00       0.00
SC_29410         50.00      6.20       3.00       7.00       0.00
SC_29411         50.00      6.20       3.00       7.00       0.00
SC_29412         50.00      6.20       3.00       7.00       0.00
SC_29413         50.00      6.20       3.00       7.00       0.00
SC_29414         50.00      6.20       3.00       7.00       0.00
SC_29415         50.00      6.20       3.00       7.00       0.00
SC_29416         50.00      6.20       3.00       7.00       0.00
SC_29417         50.00      6.20       3.00       7.00       0.00
SC_29418         50.00      6.20       3.00       7.00       0.00
SC_29419         50.00      6.20       3.00       7.00       0.00
SC_29420         50.00      6.20       3.00       7.00       0.00
SC_29421         50.00      6.20       3.00       7.00       0.00
SC_29423         50.00      6.20       3.00       7.00       0.00
SC_29424         50.00      6.20       3.00       7.00       0.00
SC_29425         50.00      6.20       3.00       7.00       0.00
SC_29426         50.00      6.20       3.00       7.00       0.00
SC_29427         50.00      6.20       3.00       7.00       0.00
SC_29428         50.00      6.20       3.00       7.00       0.00
SC_29638         50.00      6.20       3.00       7.00       0.00
SC_29639         50.00      6.20       3.00       7.00       0.00
SC_29640         50.00      6.20       3.00       7.00       0.00
SC_29641         50.00      6.20       3.00       7.00       0.00
SC_29642         50.00      6.20       3.00       7.00       0.00
SC_29643         50.00      6.20       3.00       7.00       0.00
SC_29644         50.00      6.20       3.00       7.00       0.00
SC_29645         50.00      6.20       3.00       7.00       0.00
SC_29646         50.00      6.20       3.00       7.00       0.00
SC_29647         50.00      6.20       3.00       7.00       0.00
SC_29648         50.00      6.20       3.00       7.00       0.00
SC_29649         50.00      6.20       3.00       7.00       0.00
SC_29650         50.00      6.20       3.00       7.00       0.00
SC_29651         50.00      6.20       3.00       7.00       0.00
SC_29652         50.00      6.20       3.00       7.00       0.00
SC_29653         50.00      6.20       3.00       7.00       0.00
SC_29654         50.00      6.20       3.00       7.00       0.00
SC_29655         50.00      6.20       3.00       7.00       0.00
SC_29656         50.00      6.20       3.00       7.00       0.00
SC_29657         50.00      6.20       3.00       7.00       0.00
SC_29658         50.00      6.20       3.00       7.00       0.00
SC_29659         50.00      6.20       3.00       7.00       0.00
SC_29660         50.00      6.20       3.00       7.00       0.00
SC_29661         50.00      6.20       3.00       7.00       0.00
SC_29662         50.00      6.20       3.00       7.00       0.00
SC_29663         50.00      6.20       3.00       7.00       0.00
SC_29664         50.00      6.20       3.00       7.00       0.00
SC_29665         50.00      6.20       3.00       7.00       0.00
SC_29666         50.00      6.20       3.00       7.00       0.00
SC_29667         50.00      6.20       3.00       7.00       0.00
SC_29668         50.00      6.20       3.00       7.00       0.00
SC_29669         50.00      6.20       3.00       7.00       0.00
SC_29670         50.00      6.20       3.00       7.00       0.00
SC_29671         50.00      6.20       3.00       7.00       0.00
SC_29672         50.00      6.20       3.00       7.00       0.00
SC_29673         50.00      6.20       3.00       7.00       0.00
SC_29674         50.00      6.20       3.00       7.00       0.00
SC_29675         50.00      6.20       3.00       7.00       0.00
SC_29676         50.00      6.20       3.00       7.00       0.00
SC_29677         50.00      6.20       3.00       7.00       0.00
SC_29678         50.00      6.20       3.00       7.00       0.00
SC_29679         50.00      6.20       3.00       7.00       0.00
SC_29680         50.00      6.20       3.00       7.00       0.00
SC_29681         50.00      6.20       3.00       7.00       0.00
SC_29682         50.00      6.20       3.00       7.00       0.00
SC_29683         50.00      6.20       3.00       7.00       0.00
SC_29684         50.00      6.20       3.00       7.00       0.00
SC_29685         50.00      6.20       3.00       7.00       0.00
SC_29686         50.00      6.20       3.00       7.00       0.00
SC_29687         50.00      6.20       3.00       7.00       0.00
SC_29688         50.00      6.20       3.00       7.00       0.00
SC_29689         50.00      6.20       3.00       7.00       0.00
SC_29690         50.00      6.20       3.00       7.00       0.00
SC_29691         50.00      6.20       3.00       7.00       0.00
SC_29692         50.00      6.20       3.00       7.00       0.00
SC_29693         50.00      6.20       3.00       7.00       0.00
SC_29694         50.00      6.20       3.00       7.00       0.00
SC_29695         50.00      6.20       3.00       7.00       0.00
SC_29696         50.00      6.20       3.00       7.00       0.00
SC_29697         50.00      6.20       3.00       7.00       0.00
SC_29698         50.00      6.20       3.00       7.00       0.00
SC_29699         50.00      6.20       3.00       7.00       0.00
SC_29700         50.00      6.20       3.00       7.00       0.00
SC_29701         50.00      6.20       3.00       7.00       0.00
SC_29702         50.00      6.20       3.00       7.00       0.00
SC_29703         50.00      6.20       3.00       7.00       0.00
SC_29704         50.00      6.20       3.00       7.00       0.00
SC_29705         50.00      6.20       3.00       7.00       0.00
SC_29706         50.00      6.20       3.00       7.00       0.00
SC_29707         50.00      6.20       3.00       7.00       0.00
SC_29917         50.00      6.20       3.00       7.00       0.00
SC_29918         50.00      6.20       3.00       7.00       0.00
SC_29919         50.00      6.20       3.00       7.00       0.00
SC_29920         50.00      6.20       3.00       7.00       0.00
SC_29921         50.00      6.20       3.00       7.00       0.00
SC_29922         50.00      6.20       3.00       7.00       0.00
SC_29923         50.00      6.20       3.00       7.00       0.00
SC_29924         50.00      6.20       3.00       7.00       0.00
SC_29925         50.00      6.20       3.00       7.00       0.00
SC_29926         50.00      6.20       3.00       7.00       0.00
SC_29927         50.00      6.20       3.00       7.00       0.00
SC_29928         50.00      6.20       3.00       7.00       0.00
SC_29929         50.00      6.20       3.00       7.00       0.00
SC_29930         50.00      6.20       3.00       7.00       0.00
SC_29931         50.00      6.20       3.00       7.00       0.00
SC_29932         50.00      6.20       3.00       7.00       0.00
SC_29933         50.00      6.20       3.00       7.00       0.00
SC_29934         50.00      6.20       3.00       7.00       0.00
SC_29935         50.00      6.20       3.00       7.00       0.00
SC_29936         50.00      6.20       3.00       7.00       0.00
SC_29937         50.00      6.20       3.00       7.00       0.00
SC_29938         50.00      6.20       3.00       7.00       0.00
SC_29939         50.00      6.20       3.00       7.00       0.00
SC_29940         50.00      6.20       3.00       7.00       0.00
SC_29941         50.00      6.20       3.00       7.00       0.00
SC_29942         50.00      6.20       3.00       7.00       0.00
SC_29943         50.00      6.20       3.00       7.00       0.00
SC_29944         50.00      6.20       3.00       7.00       0.00
SC_29945         50.00      6.20       3.00       7.00       0.00
SC_29946         50.00      6.20       3.00       7.00       0.00
SC_29947         50.00      6.20       3.00       7.00       0.00
SC_29948         50.00      6.20       3.00       7.00       0.00
SC_29949         50.00      6.20       3.00       7.00       0.00
SC_29950         50.00      6.20       3.00       7.00       0.00
SC_29951         50.00      6.20       3.00       7.00       0.00
SC_29952         50.00      6.20       3.00       7.00       0.00
SC_29953         50.00      6.20       3.00       7.00       0.00
SC_29954         50.00      6.20       3.00       7.00       0.00
SC_29955         50.00      6.20       3.00       7.00       0.00
SC_29956         50.00      6.20       3.00       7.00       0.00
SC_29957         50.00      6.20       3.00       7.00       0.00
SC_29958         50.00      6.20       3.00       7.00       0.00
SC_29959         50.00      6.20       3.00       7.00       0.00
SC_29960         50.00      6.20       3.00       7.00       0.00
SC_29961         50.00      6.20       3.00       7.00       0.00
SC_29962         50.00      6.20       3.00       7.00       0.00
SC_29963         50.00      6.20       3.00       7.00       0.00
SC_29964         50.00      6.20       3.00       7.00       0.00
SC_29965         50.00      6.20       3.00       7.00       0.00
SC_29966         50.00      6.20       3.00       7.00       0.00
SC_29967         50.00      6.20       3.00       7.00       0.00
SC_29968         50.00      6.20       3.00       7.00       0.00
SC_29969         50.00      6.20       3.00       7.00       0.00
SC_29970         50.00      6.20       3.00       7.00       0.00
SC_29971         50.00      6.20       3.00       7.00       0.00
SC_29972         50.00      6.20       3.00       7.00       0.00
SC_29973         50.00      6.20       3.00       7.00       0.00
SC_29974         50.00      6.20       3.00       7.00       0.00
SC_29975         50.00      6.20       3.00       7.00       0.00
SC_29976         50.00      6.20       3.00       7.00       0.00
SC_29977         50.00      6.20       3.00       7.00       0.00
SC_29978         50.00      6.20       3.00       7.00       0.00
SC_29979         50.00      6.20       3.00       7.00       0.00
SC_29980         50.00      6.20       3.00       7.00       0.00
SC_29981         50.00      6.20       3.00       7.00       0.00
SC_29982         50.00      6.20       3.00       7.00       0.00
SC_29983         50.00      6.20       3.00       7.00       0.00
SC_29984         50.00      6.20       3.00       7.00       0.00
SC_30197         50.00      6.20       3.00       7.00       0.00
SC_30198         50.00      6.20       3.00       7.00       0.00
SC_30204         50.00      6.20       3.00       7.00       0.00
SC_30205         50.00      6.20       3.00       7.00       0.00
SC_30206         50.00      6.20       3.00       7.00       0.00
SC_30207         50.00      6.20       3.00       7.00       0.00
SC_30208         50.00      6.20       3.00       7.00       0.00
SC_30209         50.00      6.20       3.00       7.00       0.00
SC_30210         50.00      6.20       3.00       7.00       0.00
SC_30211         50.00      6.20       3.00       7.00       0.00
SC_30212         50.00      6.20       3.00       7.00       0.00
SC_30213         50.00      6.20       3.00       7.00       0.00
SC_30214         50.00      6.20       3.00       7.00       0.00
SC_30215         50.00      6.20       3.00       7.00       0.00
SC_30216         50.00      6.20       3.00       7.00       0.00
SC_30217         50.00      6.20       3.00       7.00       0.00
SC_30218         50.00      6.20       3.00       7.00       0.00
SC_30219         50.00      6.20       3.00       7.00       0.00
SC_30220         50.00      6.20       3.00       7.00       0.00
SC_30221         50.00      6.20       3.00       7.00       0.00
SC_30222         50.00      6.20       3.00       7.00       0.00
SC_30223         50.00      6.20       3.00       7.00       0.00
SC_30224         50.00      6.20       3.00       7.00       0.00
SC_30225         50.00      6.20       3.00       7.00       0.00
SC_30226         50.00      6.20       3.00       7.00       0.00
SC_30227         50.00      6.20       3.00       7.00       0.00
SC_30228         50.00      6.20       3.00       7.00       0.00
SC_30229         50.00      6.20       3.00       7.00       0.00
SC_30230         50.00      6.20       3.00       7.00       0.00
SC_30231         50.00      6.20       3.00       7.00       0.00
SC_30232         50.00      6.20       3.00       7.00       0.00
SC_30233         50.00      6.20       3.00       7.00       0.00
SC_30234         50.00      6.20       3.00       7.00       0.00
SC_30235         50.00      6.20       3.00       7.00       0.00
SC_30236         50.00      6.20       3.00       7.00       0.00
SC_30237         50.00      6.20       3.00       7.00       0.00
SC_30238         50.00      6.20       3.00       7.00       0.00
SC_30239         50.00      6.20       3.00       7.00       0.00
SC_30240         50.00      6.20       3.00       7.00       0.00
SC_30241         50.00      6.20       3.00       7.00       0.00
SC_30242         50.00      6.20       3.00       7.00       0.00
SC_30243         50.00      6.20       3.00       7.00       0.00
SC_30244         50.00      6.20       3.00       7.00       0.00
SC_30245         50.00      6.20       3.00       7.00       0.00
SC_30246         50.00      6.20       3.00       7.00       0.00
SC_30247         50.00      6.20       3.00       7.00       0.00
SC_30248         50.00      6.20       3.00       7.00       0.00
SC_30249         50.00      6.20       3.00       7.00       0.00
SC_30250         50.00      6.20       3.00       7.00       0.00
SC_30251         50.00      6.20       3.00       7.00       0.00
SC_30252         50.00      6.20       3.00       7.00       0.00
SC_30253         50.00      6.20       3.00       7.00       0.00
SC_30254         50.00      6.20       3.00       7.00       0.00
SC_30255         50.00      6.20       3.00       7.00       0.00
SC_30256         50.00      6.20       3.00       7.00       0.00
SC_30257         50.00      6.20       3.00       7.00       0.00
SC_30258         50.00      6.20       3.00       7.00       0.00
SC_30259         50.00      6.20       3.00       7.00       0.00
SC_30260         50.00      6.20       3.00       7.00       0.00
SC_30261         50.00      6.20       3.00       7.00       0.00
SC_30262         50.00      6.20       3.00       7.00       0.00
SC_30488         50.00      6.20       3.00       7.00       0.00
SC_30489         50.00      6.20       3.00       7.00       0.00
SC_30490         50.00      6.20       3.00       7.00       0.00
SC_30491         50.00      6.20       3.00       7.00       0.00
SC_30492         50.00      6.20       3.00       7.00       0.00
SC_30493         50.00      6.20       3.00       7.00       0.00
SC_30494         50.00      6.20       3.00       7.00       0.00
SC_30495         50.00      6.20       3.00       7.00       0.00
SC_30496         50.00      6.20       3.00       7.00       0.00
SC_30497         50.00      6.20       3.00       7.00       0.00
SC_30498         50.00      6.20       3.00       7.00       0.00
SC_30499         50.00      6.20       3.00       7.00       0.00
SC_30500         50.00      6.20       3.00       7.00       0.00
SC_30501         50.00      6.20       3.00       7.00       0.00
SC_30502         50.00      6.20       3.00       7.00       0.00
SC_30503         50.00      6.20       3.00       7.00       0.00
SC_30504         50.00      6.20       3.00       7.00       0.00
SC_30506         50.00      6.20       3.00       7.00       0.00
SC_30507         50.00      6.20       3.00       7.00       0.00
SC_30508         50.00      6.20       3.00       7.00       0.00
SC_30509         50.00      6.20       3.00       7.00       0.00
SC_30510         50.00      6.20       3.00       7.00       0.00
SC_30511         50.00      6.20       3.00       7.00       0.00
SC_30512         50.00      6.20       3.00       7.00       0.00
SC_30513         50.00      6.20       3.00       7.00       0.00
SC_30514         50.00      6.20       3.00       7.00       0.00
SC_30515         50.00      6.20       3.00       7.00       0.00
SC_30516         50.00      6.20       3.00       7.00       0.00
SC_30517         50.00      6.20       3.00       7.00       0.00
SC_30518         50.00      6.20       3.00       7.00       0.00
SC_30519         50.00      6.20       3.00       7.00       0.00
SC_30520         50.00      6.20       3.00       7.00       0.00
SC_30521         50.00      6.20       3.00       7.00       0.00
SC_30522         50.00      6.20       3.00       7.00       0.00
SC_30523         50.00      6.20       3.00       7.00       0.00
SC_30524         50.00      6.20       3.00       7.00       0.00
SC_30525         50.00      6.20       3.00       7.00       0.00
SC_30526         50.00      6.20       3.00       7.00       0.00
SC_30527         50.00      6.20       3.00       7.00       0.00
SC_30528         50.00      6.20       3.00       7.00       0.00
SC_30529         50.00      6.20       3.00       7.00       0.00
SC_30530         50.00      6.20       3.00       7.00       0.00
SC_30531         50.00      6.20       3.00       7.00       0.00
SC_30532         50.00      6.20       3.00       7.00       0.00
SC_30533         50.00      6.20       3.00       7.00       0.00
SC_30534         50.00      6.20       3.00       7.00       0.00
SC_30535         50.00      6.20       3.00       7.00       0.00
SC_30536         50.00      6.20       3.00       7.00       0.00
SC_30537         50.00      6.20       3.00       7.00       0.00
SC_30538         50.00      6.20       3.00       7.00       0.00
SC_30539         50.00      6.20       3.00       7.00       0.00
SC_30540         50.00      6.20       3.00       7.00       0.00
SC_30541         50.00      6.20       3.00       7.00       0.00
SC_30542         50.00      6.20       3.00       7.00       0.00
SC_30773         50.00      6.20       3.00       7.00       0.00
SC_30774         50.00      6.20       3.00       7.00       0.00
SC_30775         50.00      6.20       3.00       7.00       0.00
SC_30776         50.00      6.20       3.00       7.00       0.00
SC_30779         50.00      6.20       3.00       7.00       0.00
SC_30780         50.00      6.20       3.00       7.00       0.00
SC_30781         50.00      6.20       3.00       7.00       0.00
SC_30782         50.00      6.20       3.00       7.00       0.00
SC_30783         50.00      6.20       3.00       7.00       0.00
SC_30787         50.00      6.20       3.00       7.00       0.00
SC_30788         50.00      6.20       3.00       7.00       0.00
SC_30789         50.00      6.20       3.00       7.00       0.00
SC_30790         50.00      6.20       3.00       7.00       0.00
SC_30791         50.00      6.20       3.00       7.00       0.00
SC_30792         50.00      6.20       3.00       7.00       0.00
SC_30793         50.00      6.20       3.00       7.00       0.00
SC_30794         50.00      6.20       3.00       7.00       0.00
SC_30795         50.00      6.20       3.00       7.00       0.00
SC_30796         50.00      6.20       3.00       7.00       0.00
SC_30797         50.00      6.20       3.00       7.00       0.00
SC_30798         50.00      6.20       3.00       7.00       0.00
SC_30799         50.00      6.20       3.00       7.00       0.00
SC_30800         50.00      6.20       3.00       7.00       0.00
SC_30801         50.00      6.20       3.00       7.00       0.00
SC_30802         50.00      6.20       3.00       7.00       0.00
SC_30803         50.00      6.20       3.00       7.00       0.00
SC_30804         50.00      6.20       3.00       7.00       0.00
SC_30805         50.00      6.20       3.00       7.00       0.00
SC_30806         50.00      6.20       3.00       7.00       0.00
SC_30807         50.00      6.20       3.00       7.00       0.00
SC_30808         50.00      6.20       3.00       7.00       0.00
SC_30809         50.00      6.20       3.00       7.00       0.00
SC_30810         50.00      6.20       3.00       7.00       0.00
SC_30811         50.00      6.20       3.00       7.00       0.00
SC_30812         50.00      6.20       3.00       7.00       0.00
SC_30813         50.00      6.20       3.00       7.00       0.00
SC_30814         50.00      6.20       3.00       7.00       0.00
SC_30815         50.00      6.20       3.00       7.00       0.00
SC_30816         50.00      6.20       3.00       7.00       0.00
SC_30817         50.00      6.20       3.00       7.00       0.00
SC_30818         50.00      6.20       3.00       7.00       0.00
SC_30819         50.00      6.20       3.00       7.00       0.00
SC_30820         50.00      6.20       3.00       7.00       0.00
SC_30821         50.00      6.20       3.00       7.00       0.00
SC_30822         50.00      6.20       3.00       7.00       0.00
SC_31061         50.00      6.20       3.00       7.00       0.00
SC_31063         50.00      6.20       3.00       7.00       0.00
SC_31064         50.00      6.20       3.00       7.00       0.00
SC_31065         50.00      6.20       3.00       7.00       0.00
SC_31066         50.00      6.20       3.00       7.00       0.00
SC_31069         50.00      6.20       3.00       7.00       0.00
SC_31070         50.00      6.20       3.00       7.00       0.00
SC_31071         50.00      6.20       3.00       7.00       0.00
SC_31072         50.00      6.20       3.00       7.00       0.00
SC_31073         50.00      6.20       3.00       7.00       0.00
SC_31074         50.00      6.20       3.00       7.00       0.00
SC_31075         50.00      6.20       3.00       7.00       0.00
SC_31076         50.00      6.20       3.00       7.00       0.00
SC_31077         50.00      6.20       3.00       7.00       0.00
SC_31078         50.00      6.20       3.00       7.00       0.00
SC_31079         50.00      6.20       3.00       7.00       0.00
SC_31080         50.00      6.20       3.00       7.00       0.00
SC_31081         50.00      6.20       3.00       7.00       0.00
SC_31082         50.00      6.20       3.00       7.00       0.00
SC_31083         50.00      6.20       3.00       7.00       0.00
SC_31084         50.00      6.20       3.00       7.00       0.00
SC_31085         50.00      6.20       3.00       7.00       0.00
SC_31086         50.00      6.20       3.00       7.00       0.00
SC_31087         50.00      6.20       3.00       7.00       0.00
SC_31088         50.00      6.20       3.00       7.00       0.00
SC_31089         50.00      6.20       3.00       7.00       0.00
SC_31090         50.00      6.20       3.00       7.00       0.00
SC_31091         50.00      6.20       3.00       7.00       0.00
SC_31092         50.00      6.20       3.00       7.00       0.00
SC_31093         50.00      6.20       3.00       7.00       0.00
SC_31094         50.00      6.20       3.00       7.00       0.00
SC_31095         50.00      6.20       3.00       7.00       0.00
SC_31096         50.00      6.20       3.00       7.00       0.00
SC_31097         50.00      6.20       3.00       7.00       0.00
SC_31098         50.00      6.20       3.00       7.00       0.00
SC_31099         50.00      6.20       3.00       7.00       0.00
SC_31100         50.00      6.20       3.00       7.00       0.00
SC_31101         50.00      6.20       3.00       7.00       0.00
SC_31102         50.00      6.20       3.00       7.00       0.00
SC_31103         50.00      6.20       3.00       7.00       0.00
SC_31104         50.00      6.20       3.00       7.00       0.00
SC_31351         50.00      6.20       3.00       7.00       0.00
SC_31352         50.00      6.20       3.00       7.00       0.00
SC_31353         50.00      6.20       3.00       7.00       0.00
SC_31354         50.00      6.20       3.00       7.00       0.00
SC_31355         50.00      6.20       3.00       7.00       0.00
SC_31356         50.00      6.20       3.00       7.00       0.00
SC_31357         50.00      6.20       3.00       7.00       0.00
SC_31358         50.00      6.20       3.00       7.00       0.00
SC_31359         50.00      6.20       3.00       7.00       0.00
SC_31360         50.00      6.20       3.00       7.00       0.00
SC_31361         50.00      6.20       3.00       7.00       0.00
SC_31362         50.00      6.20       3.00       7.00       0.00
SC_31363         50.00      6.20       3.00       7.00       0.00
SC_31364         50.00      6.20       3.00       7.00       0.00
SC_31365         50.00      6.20       3.00       7.00       0.00
SC_31366         50.00      6.20       3.00       7.00       0.00
SC_31367         50.00      6.20       3.00       7.00       0.00
SC_31368         50.00      6.20       3.00       7.00       0.00
SC_31369         50.00      6.20       3.00       7.00       0.00
SC_31370         50.00      6.20       3.00       7.00       0.00
SC_31371         50.00      6.20       3.00       7.00       0.00
SC_31372         50.00      6.20       3.00       7.00       0.00
SC_31373         50.00      6.20       3.00       7.00       0.00
SC_31374         50.00      6.20       3.00       7.00       0.00
SC_31375         50.00      6.20       3.00       7.00       0.00
SC_31376         50.00      6.20       3.00       7.00       0.00
SC_31377         50.00      6.20       3.00       7.00       0.00
SC_31378         50.00      6.20       3.00       7.00       0.00
SC_31379         50.00      6.20       3.00       7.00       0.00
SC_31380         50.00      6.20       3.00       7.00       0.00
SC_31381         50.00      6.20       3.00       7.00       0.00
SC_31382         50.00      6.20       3.00       7.00       0.00
SC_31383         50.00      6.20       3.00       7.00       0.00
SC_31384         50.00      6.20       3.00       7.00       0.00
SC_31385         50.00      6.20       3.00       7.00       0.00
SC_31386         50.00      6.20       3.00       7.00       0.00
SC_31631         50.00      6.20       3.00       7.00       0.00
SC_31632         50.00      6.20       3.00       7.00       0.00
SC_31633         50.00      6.20       3.00       7.00       0.00
SC_31634         50.00      6.20       3.00       7.00       0.00
SC_31635         50.00      6.20       3.00       7.00       0.00
SC_31636         50.00      6.20       3.00       7.00       0.00
SC_31637         50.00      6.20       3.00       7.00       0.00
SC_31638         50.00      6.20       3.00       7.00       0.00
SC_31639         50.00      6.20       3.00       7.00       0.00
SC_31640         50.00      6.20       3.00       7.00       0.00
SC_31641         50.00      6.20       3.00       7.00       0.00
SC_31642         50.00      6.20       3.00       7.00       0.00
SC_31643         50.00      6.20       3.00       7.00       0.00
SC_31644         50.00      6.20       3.00       7.00       0.00
SC_31645         50.00      6.20       3.00       7.00       0.00
SC_31646         50.00      6.20       3.00       7.00       0.00
SC_31647         50.00      6.20       3.00       7.00       0.00
SC_31648         50.00      6.20       3.00       7.00       0.00
SC_31649         50.00      6.20       3.00       7.00       0.00
SC_31650         50.00      6.20       3.00       7.00       0.00
SC_31651         50.00      6.20       3.00       7.00       0.00
SC_31652         50.00      6.20       3.00       7.00       0.00
SC_31653         50.00      6.20       3.00       7.00       0.00
SC_31654         50.00      6.20       3.00       7.00       0.00
SC_31655         50.00      6.20       3.00       7.00       0.00
SC_31656         50.00      6.20       3.00       7.00       0.00
SC_31657         50.00      6.20       3.00       7.00       0.00
SC_31658         50.00      6.20       3.00       7.00       0.00
SC_31659         50.00      6.20       3.00       7.00       0.00
SC_31660         50.00      6.20       3.00       7.00       0.00
SC_31661         50.00      6.20       3.00       7.00       0.00
SC_31662         50.00      6.20       3.00       7.00       0.00
SC_31663         50.00      6.20       3.00       7.00       0.00
SC_31666         50.00      6.20       3.00       7.00       0.00
SC_31667         50.00      6.20       3.00       7.00       0.00
SC_31912         50.00      6.20       3.00       7.00       0.00
SC_31913         50.00      6.20       3.00       7.00       0.00
SC_31914         50.00      6.20       3.00       7.00       0.00
SC_31915         50.00      6.20       3.00       7.00       0.00
SC_31916         50.00      6.20       3.00       7.00       0.00
SC_31917         50.00      6.20       3.00       7.00       0.00
SC_31918         50.00      6.20       3.00       7.00       0.00
SC_31919         50.00      6.20       3.00       7.00       0.00
SC_31920         50.00      6.20       3.00       7.00       0.00
SC_31921         50.00      6.20       3.00       7.00       0.00
SC_31922         50.00      6.20       3.00       7.00       0.00
SC_31923         50.00      6.20       3.00       7.00       0.00
SC_31924         50.00      6.20       3.00       7.00       0.00
SC_31925         50.00      6.20       3.00       7.00       0.00
SC_31926         50.00      6.20       3.00       7.00       0.00
SC_31927         50.00      6.20       3.00       7.00       0.00
SC_31928         50.00      6.20       3.00       7.00       0.00
SC_31929         50.00      6.20       3.00       7.00       0.00
SC_31930         50.00      6.20       3.00       7.00       0.00
SC_31931         50.00      6.20       3.00       7.00       0.00
SC_31932         50.00      6.20       3.00       7.00       0.00
SC_31933         50.00      6.20       3.00       7.00       0.00
SC_31934         50.00      6.20       3.00       7.00       0.00
SC_31935         50.00      6.20       3.00       7.00       0.00
SC_31936         50.00      6.20       3.00       7.00       0.00
SC_31937         50.00      6.20       3.00       7.00       0.00
SC_31938         50.00      6.20       3.00       7.00       0.00
SC_31939         50.00      6.20       3.00       7.00       0.00
SC_31940         50.00      6.20       3.00       7.00       0.00
SC_31941         50.00      6.20       3.00       7.00       0.00
SC_31942         50.00      6.20       3.00       7.00       0.00
SC_31943         50.00      6.20       3.00       7.00       0.00
SC_32193         50.00      6.20       3.00       7.00       0.00
SC_32194         50.00      6.20       3.00       7.00       0.00
SC_32195         50.00      6.20       3.00       7.00       0.00
SC_32196         50.00      6.20       3.00       7.00       0.00
SC_32197         50.00      6.20       3.00       7.00       0.00
SC_32198         50.00      6.20       3.00       7.00       0.00
SC_32199         50.00      6.20       3.00       7.00       0.00
SC_32200         50.00      6.20       3.00       7.00       0.00
SC_32201         50.00      6.20       3.00       7.00       0.00
SC_32202         50.00      6.20       3.00       7.00       0.00
SC_32203         50.00      6.20       3.00       7.00       0.00
SC_32204         50.00      6.20       3.00       7.00       0.00
SC_32205         50.00      6.20       3.00       7.00       0.00
SC_32206         50.00      6.20       3.00       7.00       0.00
SC_32207         50.00      6.20       3.00       7.00       0.00
SC_32208         50.00      6.20       3.00       7.00       0.00
SC_32209         50.00      6.20       3.00       7.00       0.00
SC_32210         50.00      6.20       3.00       7.00       0.00
SC_32211         50.00      6.20       3.00       7.00       0.00
SC_32212         50.00      6.20       3.00       7.00       0.00
SC_32213         50.00      6.20       3.00       7.00       0.00
SC_32214         50.00      6.20       3.00       7.00       0.00
SC_32215         50.00      6.20       3.00       7.00       0.00
SC_32216         50.00      6.20       3.00       7.00       0.00
SC_32217         50.00      6.20       3.00       7.00       0.00
SC_32218         50.00      6.20       3.00       7.00       0.00
SC_32219         50.00      6.20       3.00       7.00       0.00
SC_32220         50.00      6.20       3.00       7.00       0.00
SC_32221         50.00      6.20       3.00       7.00       0.00
SC_32222         50.00      6.20       3.00       7.00       0.00
SC_32223         50.00      6.20       3.00       7.00       0.00
SC_32473         50.00      6.20       3.00       7.00       0.00
SC_32474         50.00      6.20       3.00       7.00       0.00
SC_32475         50.00      6.20       3.00       7.00       0.00
SC_32476         50.00      6.20       3.00       7.00       0.00
SC_32477         50.00      6.20       3.00       7.00       0.00
SC_32478         50.00      6.20       3.00       7.00       0.00
SC_32479         50.00      6.20       3.00       7.00       0.00
SC_32480         50.00      6.20       3.00       7.00       0.00
SC_32481         50.00      6.20       3.00       7.00       0.00
SC_32482         50.00      6.20       3.00       7.00       0.00
SC_32483         50.00      6.20       3.00       7.00       0.00
SC_32484         50.00      6.20       3.00       7.00       0.00
SC_32485         50.00      6.20       3.00       7.00       0.00
SC_32486         50.00      6.20       3.00       7.00       0.00
SC_32487         50.00      6.20       3.00       7.00       0.00
SC_32488         50.00      6.20       3.00       7.00       0.00
SC_32489         50.00      6.20       3.00       7.00       0.00
SC_32490         50.00      6.20       3.00       7.00       0.00
SC_32491         50.00      6.20       3.00       7.00       0.00
SC_32492         50.00      6.20       3.00       7.00       0.00
SC_32493         50.00      6.20       3.00       7.00       0.00
SC_32494         50.00      6.20       3.00       7.00       0.00
SC_32495         50.00      6.20       3.00       7.00       0.00
SC_32496         50.00      6.20       3.00       7.00       0.00
SC_32497         50.00      6.20       3.00       7.00       0.00
SC_32498         50.00      6.20       3.00       7.00       0.00
SC_32499         50.00      6.20       3.00       7.00       0.00
SC_32500         50.00      6.20       3.00       7.00       0.00
SC_32501         50.00      6.20       3.00       7.00       0.00
SC_32502         50.00      6.20       3.00       7.00       0.00
SC_32759         50.00      6.20       3.00       7.00       0.00
SC_32760         50.00      6.20       3.00       7.00       0.00
SC_32761         50.00      6.20       3.00       7.00       0.00
SC_32762         50.00      6.20       3.00       7.00       0.00
SC_32763         50.00      6.20       3.00       7.00       0.00
SC_32764         50.00      6.20       3.00       7.00       0.00
SC_32765         50.00      6.20       3.00       7.00       0.00
SC_32766         50.00      6.20       3.00       7.00       0.00
SC_32767         50.00      6.20       3.00       7.00       0.00
SC_32768         50.00      6.20       3.00       7.00       0.00
SC_32769         50.00      6.20       3.00       7.00       0.00
SC_32770         50.00      6.20       3.00       7.00       0.00
SC_32771         50.00      6.20       3.00       7.00       0.00
SC_32772         50.00      6.20       3.00       7.00       0.00
SC_32773         50.00      6.20       3.00       7.00       0.00
SC_32774         50.00      6.20       3.00       7.00       0.00
SC_32775         50.00      6.20       3.00       7.00       0.00
SC_32776         50.00      6.20       3.00       7.00       0.00
SC_32777         50.00      6.20       3.00       7.00       0.00
SC_32778         50.00      6.20       3.00       7.00       0.00
SC_32779         50.00      6.20       3.00       7.00       0.00
SC_32780         50.00      6.20       3.00       7.00       0.00
SC_32781         50.00      6.20       3.00       7.00       0.00
SC_33039         50.00      6.20       3.00       7.00       0.00
SC_33040         50.00      6.20       3.00       7.00       0.00
SC_33041         50.00      6.20       3.00       7.00       0.00
SC_33042         50.00      6.20       3.00       7.00       0.00
SC_33043         50.00      6.20       3.00       7.00       0.00
SC_33044         50.00      6.20       3.00       7.00       0.00
SC_33045         50.00      6.20       3.00       7.00       0.00
SC_33046         50.00      6.20       3.00       7.00       0.00
SC_33047         50.00      6.20       3.00       7.00       0.00
SC_33048         50.00      6.20       3.00       7.00       0.00
SC_33049         50.00      6.20       3.00       7.00       0.00
SC_33050         50.00      6.20       3.00       7.00       0.00
SC_33051         50.00      6.20       3.00       7.00       0.00
SC_33052         50.00      6.20       3.00       7.00       0.00
SC_33053         50.00      6.20       3.00       7.00       0.00
SC_33054         50.00      6.20       3.00       7.00       0.00
SC_33055         50.00      6.20       3.00       7.00       0.00
SC_33056         50.00      6.20       3.00       7.00       0.00
SC_33057         50.00      6.20       3.00       7.00       0.00
SC_33058         50.00      6.20       3.00       7.00       0.00
SC_33316         50.00      6.20       3.00       7.00       0.00
SC_33317         50.00      6.20       3.00       7.00       0.00
SC_33318         50.00      6.20       3.00       7.00       0.00
SC_33319         50.00      6.20       3.00       7.00       0.00
SC_33320         50.00      6.20       3.00       7.00       0.00
SC_33321         50.00      6.20       3.00       7.00       0.00
SC_33322         50.00      6.20       3.00       7.00       0.00
SC_33323         50.00      6.20       3.00       7.00       0.00
SC_33324         50.00      6.20       3.00       7.00       0.00
SC_33325         50.00      6.20       3.00       7.00       0.00
SC_33326         50.00      6.20       3.00       7.00       0.00
SC_33327         50.00      6.20       3.00       7.00       0.00
SC_33328         50.00      6.20       3.00       7.00       0.00
SC_33329         50.00      6.20       3.00       7.00       0.00
SC_33330         50.00      6.20       3.00       7.00       0.00
SC_33331         50.00      6.20       3.00       7.00       0.00
SC_33332         50.00      6.20       3.00       7.00       0.00
SC_33333         50.00      6.20       3.00       7.00       0.00
SC_33334         50.00      6.20       3.00       7.00       0.00
SC_33593         50.00      6.20       3.00       7.00       0.00
SC_33594         50.00      6.20       3.00       7.00       0.00
SC_33595         50.00      6.20       3.00       7.00       0.00
SC_33596         50.00      6.20       3.00       7.00       0.00
SC_33597         50.00      6.20       3.00       7.00       0.00
SC_33598         50.00      6.20       3.00       7.00       0.00
SC_33599         50.00      6.20       3.00       7.00       0.00
SC_33600         50.00      6.20       3.00       7.00       0.00
SC_33601         50.00      6.20       3.00       7.00       0.00
SC_33602         50.00      6.20       3.00       7.00       0.00
SC_33603         50.00      6.20       3.00       7.00       0.00
SC_33604         50.00      6.20       3.00       7.00       0.00
SC_33605         50.00      6.20       3.00       7.00       0.00
SC_33606         50.00      6.20       3.00       7.00       0.00
SC_33607         50.00      6.20       3.00       7.00       0.00
SC_33608         50.00      6.20       3.00       7.00       0.00
SC_33609         50.00      6.20       3.00       7.00       0.00
SC_33869         50.00      6.20       3.00       7.00       0.00
SC_33870         50.00      6.20       3.00       7.00       0.00
SC_33871         50.00      6.20       3.00       7.00       0.00
SC_33872         50.00      6.20       3.00       7.00       0.00
SC_33873         50.00      6.20       3.00       7.00       0.00
SC_33874         50.00      6.20       3.00       7.00       0.00
SC_33875         50.00      6.20       3.00       7.00       0.00
SC_33876         50.00      6.20       3.00       7.00       0.00
SC_33877         50.00      6.20       3.00       7.00       0.00
SC_33878         50.00      6.20       3.00       7.00       0.00
SC_33879         50.00      6.20       3.00       7.00       0.00
SC_33880         50.00      6.20       3.00       7.00       0.00
SC_33881         50.00      6.20       3.00       7.00       0.00
SC_33882         50.00      6.20       3.00       7.00       0.00
SC_33883         50.00      6.20       3.00       7.00       0.00
SC_34144         50.00      6.20       3.00       7.00       0.00
SC_34145         50.00      6.20       3.00       7.00       0.00
SC_34146         50.00      6.20       3.00       7.00       0.00
SC_34147         50.00      6.20       3.00       7.00       0.00
SC_34148         50.00      6.20       3.00       7.00       0.00
SC_34149         50.00      6.20       3.00       7.00       0.00
SC_34150         50.00      6.20       3.00       7.00       0.00
SC_34151         50.00      6.20       3.00       7.00       0.00
SC_34152         50.00      6.20       3.00       7.00       0.00
SC_34153         50.00      6.20       3.00       7.00       0.00
SC_34155         50.00      6.20       3.00       7.00       0.00
SC_34418         50.00      6.20       3.00       7.00       0.00
SC_34419         50.00      6.20       3.00       7.00       0.00
SC_34420         50.00      6.20       3.00       7.00       0.00
SC_34421         50.00      6.20       3.00       7.00       0.00
SC_34422         50.00      6.20       3.00       7.00       0.00
SC_34423         50.00      6.20       3.00       7.00       0.00
SC_34424         50.00      6.20       3.00       7.00       0.00
SC_34694         50.00      6.20       3.00       7.00       0.00
SC_34695         50.00      6.20       3.00       7.00       0.00
SC_34696         50.00      6.20       3.00       7.00       0.00
SC_34697         50.00      6.20       3.00       7.00       0.00
SC_34698         50.00      6.20       3.00       7.00       0.00
SC_34969         50.00      6.20       3.00       7.00       0.00
SC_34970         50.00      6.20       3.00       7.00       0.00

[TIMESERIES]
;SWMM 15-Minute Rainfall Timeseries: Mumbai 26 July 2005 (944.2 mm Total)
;Date       Time     Rainfall_mm
TS_2005_JULY26 07/26/2005 00:00 0.018
TS_2005_JULY26 07/26/2005 00:15 0.036
TS_2005_JULY26 07/26/2005 00:30 0.054
TS_2005_JULY26 07/26/2005 00:45 0.081
TS_2005_JULY26 07/26/2005 01:00 0.117
TS_2005_JULY26 07/26/2005 01:15 0.144
TS_2005_JULY26 07/26/2005 01:30 0.144
TS_2005_JULY26 07/26/2005 01:45 0.117
TS_2005_JULY26 07/26/2005 02:00 0.081
TS_2005_JULY26 07/26/2005 02:15 0.054
TS_2005_JULY26 07/26/2005 02:30 0.036
TS_2005_JULY26 07/26/2005 02:45 0.018
TS_2005_JULY26 07/26/2005 03:00 0.0
TS_2005_JULY26 07/26/2005 03:15 0.0
TS_2005_JULY26 07/26/2005 03:30 0.0
TS_2005_JULY26 07/26/2005 03:45 0.0
TS_2005_JULY26 07/26/2005 04:00 0.0
TS_2005_JULY26 07/26/2005 04:15 0.0
TS_2005_JULY26 07/26/2005 04:30 0.0
TS_2005_JULY26 07/26/2005 04:45 0.0
TS_2005_JULY26 07/26/2005 05:00 0.0
TS_2005_JULY26 07/26/2005 05:15 0.0
TS_2005_JULY26 07/26/2005 05:30 0.0
TS_2005_JULY26 07/26/2005 05:45 0.0
TS_2005_JULY26 07/26/2005 06:00 0.35
TS_2005_JULY26 07/26/2005 06:15 0.7
TS_2005_JULY26 07/26/2005 06:30 1.05
TS_2005_JULY26 07/26/2005 06:45 1.575
TS_2005_JULY26 07/26/2005 07:00 2.275
TS_2005_JULY26 07/26/2005 07:15 2.8
TS_2005_JULY26 07/26/2005 07:30 2.8
TS_2005_JULY26 07/26/2005 07:45 2.275
TS_2005_JULY26 07/26/2005 08:00 1.575
TS_2005_JULY26 07/26/2005 08:15 1.05
TS_2005_JULY26 07/26/2005 08:30 0.7
TS_2005_JULY26 07/26/2005 08:45 0.35
TS_2005_JULY26 07/26/2005 09:00 8.634
TS_2005_JULY26 07/26/2005 09:15 17.268
TS_2005_JULY26 07/26/2005 09:30 25.902
TS_2005_JULY26 07/26/2005 09:45 38.853
TS_2005_JULY26 07/26/2005 10:00 56.121
TS_2005_JULY26 07/26/2005 10:15 69.072
TS_2005_JULY26 07/26/2005 10:30 69.072
TS_2005_JULY26 07/26/2005 10:45 56.121
TS_2005_JULY26 07/26/2005 11:00 38.853
TS_2005_JULY26 07/26/2005 11:15 25.902
TS_2005_JULY26 07/26/2005 11:30 17.268
TS_2005_JULY26 07/26/2005 11:45 8.634
TS_2005_JULY26 07/26/2005 12:00 4.352
TS_2005_JULY26 07/26/2005 12:15 8.704
TS_2005_JULY26 07/26/2005 12:30 13.056
TS_2005_JULY26 07/26/2005 12:45 19.584
TS_2005_JULY26 07/26/2005 13:00 28.288
TS_2005_JULY26 07/26/2005 13:15 34.816
TS_2005_JULY26 07/26/2005 13:30 34.816
TS_2005_JULY26 07/26/2005 13:45 28.288
TS_2005_JULY26 07/26/2005 14:00 19.584
TS_2005_JULY26 07/26/2005 14:15 13.056
TS_2005_JULY26 07/26/2005 14:30 8.704
TS_2005_JULY26 07/26/2005 14:45 4.352
TS_2005_JULY26 07/26/2005 15:00 2.024
TS_2005_JULY26 07/26/2005 15:15 4.048
TS_2005_JULY26 07/26/2005 15:30 6.072
TS_2005_JULY26 07/26/2005 15:45 9.108
TS_2005_JULY26 07/26/2005 16:00 13.156
TS_2005_JULY26 07/26/2005 16:15 16.192
TS_2005_JULY26 07/26/2005 16:30 16.192
TS_2005_JULY26 07/26/2005 16:45 13.156
TS_2005_JULY26 07/26/2005 17:00 9.108
TS_2005_JULY26 07/26/2005 17:15 6.072
TS_2005_JULY26 07/26/2005 17:30 4.048
TS_2005_JULY26 07/26/2005 17:45 2.024
TS_2005_JULY26 07/26/2005 18:00 2.322
TS_2005_JULY26 07/26/2005 18:15 4.644
TS_2005_JULY26 07/26/2005 18:30 6.966
TS_2005_JULY26 07/26/2005 18:45 10.449
TS_2005_JULY26 07/26/2005 19:00 15.093
TS_2005_JULY26 07/26/2005 19:15 18.576
TS_2005_JULY26 07/26/2005 19:30 18.576
TS_2005_JULY26 07/26/2005 19:45 15.093
TS_2005_JULY26 07/26/2005 20:00 10.449
TS_2005_JULY26 07/26/2005 20:15 6.966
TS_2005_JULY26 07/26/2005 20:30 4.644
TS_2005_JULY26 07/26/2005 20:45 2.322
TS_2005_JULY26 07/26/2005 21:00 0.22
TS_2005_JULY26 07/26/2005 21:15 0.44
TS_2005_JULY26 07/26/2005 21:30 0.66
TS_2005_JULY26 07/26/2005 21:45 0.99
TS_2005_JULY26 07/26/2005 22:00 1.43
TS_2005_JULY26 07/26/2005 22:15 1.76
TS_2005_JULY26 07/26/2005 22:30 1.76
TS_2005_JULY26 07/26/2005 22:45 1.43
TS_2005_JULY26 07/26/2005 23:00 0.99
TS_2005_JULY26 07/26/2005 23:15 0.66
TS_2005_JULY26 07/26/2005 23:30 0.44
TS_2005_JULY26 07/26/2005 23:45 0.22
TS_2005_JULY26 07/27/2005 00:00 0.964
TS_2005_JULY26 07/27/2005 00:15 1.928
TS_2005_JULY26 07/27/2005 00:30 2.892
TS_2005_JULY26 07/27/2005 00:45 4.338
TS_2005_JULY26 07/27/2005 01:00 6.266
TS_2005_JULY26 07/27/2005 01:15 7.712
TS_2005_JULY26 07/27/2005 01:30 7.712
TS_2005_JULY26 07/27/2005 01:45 6.266
TS_2005_JULY26 07/27/2005 02:00 4.338
TS_2005_JULY26 07/27/2005 02:15 2.892
TS_2005_JULY26 07/27/2005 02:30 1.928
TS_2005_JULY26 07/27/2005 02:45 0.964

[COORDINATES]
;;Node           X-Coord          Y-Coord
2175074902       275409.20      2107990.00    
2175073910       275396.26      2107963.98    
2175074803       275467.00      2107882.00    
2175074908       275494.71      2107910.39    
2175074804       275477.00      2107878.00    
2175084001       275423.20      2108012.00    
2175074905       275453.65      2107934.19    
2175074906       275476.28      2107922.89    
2175074907       275485.82      2107915.65    
2175075802       275518.00      2107836.00    
2175075803       275522.00      2107843.00    
2175075804       275532.00      2107865.00    
2175075806       275540.00      2107879.00    
2175075807       275549.00      2107864.50    
2175075809       275584.00      2107843.50    
2175075901       275554.00      2107908.00    
2175075902       275565.00      2107929.00    
2175075903       275582.00      2107961.00    
2175075904       275594.00      2107987.00    
2175076703       275660.00      2107796.50    
2175076801       275616.00      2107823.50    
2175076705       275692.00      2107776.50    
2175076802       275696.70      2107884.70    
2175077803       275734.00      2107859.00    
2175076905       275652.60      2107919.30    
2175077702       275723.00      2107758.50    
2175077704       275733.30      2107770.00    
2175077706       275734.80      2107748.80    
2175077801       275732.40      2107814.30    
2175078701       275858.24      2107745.13    
2175078702       275876.71      2107728.00    
2175078703       275891.30      2107702.00    
2175079605       275911.60      2107679.90    
2175079602       275937.40      2107674.80    
2175079603       275966.18      2107684.86    
2175079604       275994.00      2107695.40    
2176070701       276022.50      2107706.10    
2175084002       275432.20      2108030.00    
2175084003       275434.20      2108040.00    
2175084004       275465.50      2108082.70    
2175084102       275493.60      2108151.20    
2175085101       275558.60      2108179.60    
2175086001       275609.00      2108017.00    
2175086101       275622.30      2108135.90    
2175086302       275663.40      2108312.30    
2175087201       275719.00      2108274.50    
2175087202       275769.20      2108251.90    
2175087802       275727.24      2108806.95    
2175088301       275834.00      2108397.00    
2175088401       275812.80      2108405.60    
2175088302       275854.90      2108381.90    
2175088303       275867.10      2108375.10    
2175088304       275876.20      2108369.50    
2175088402       275819.00      2108415.80    
2175088602       275846.80      2108604.90    
2175089401       275919.90      2108463.40    
2175089501       275907.90      2108567.10    
2175089502       275917.10      2108558.70    
2175089503       275981.60      2108550.30    
2175089601       275983.80      2108656.80    
2175089701       275963.60      2108762.90    
2176045803       276582.40      2104801.60    
2176046601       276615.95      2104674.63    
2176045901       276598.75      2104956.74    
2176046501       276697.20      2104557.50    
2176047501       276702.90      2104549.30    
2176047502       276715.00      2104531.80    
2176056101       276649.05      2105199.36    
2176057401       276720.59      2105419.51    
2176057502       276743.90      2105547.50    
2176057604       276788.80      2105677.80    
2176058701       276868.67      2105784.18    
2176058801       276881.80      2105808.90    
2176059901       276957.73      2105951.81    
2176069601       276966.22      2106685.91    
2177060401       277009.01      2106415.57    
2176069804       276942.00      2106881.20    
2176069803       276940.80      2106896.20    
2176070702       276050.82      2107716.59    
2176070703       276064.29      2107720.24    
2176070706       276078.89      2107725.27    
2176070704       276066.30      2107737.20    
2176071705       276182.50      2107776.90    
2176070705       276072.20      2107767.60    
2176071701       276106.50      2107735.80    
2176070707       276080.80      2107798.80    
2176070801       276095.50      2107853.20    
2176072701       276228.20      2107705.70    
2176071702       276135.20      2107746.50    
2176071703       276165.20      2107757.70    
2176071704       276179.06      2107762.46    
2176071706       276192.07      2107765.66    
2176072801       276286.70      2107814.90    
2176072704       276220.10      2107775.90    
2176071901       276115.70      2107927.80    
2176073601       276303.90      2107662.30    
2176072702       276247.80      2107786.90    
2176072703       276276.30      2107796.70    
2176073801       276304.58      2107806.74    
2176073803       276359.30      2107843.70    
2176073602       276310.58      2107656.45    
2176073603       276356.31      2107660.51    
2176073604       276389.64      2107621.22    
2176074501       276441.05      2107593.04    
2176073802       276332.65      2107817.01    
2176073804       276360.93      2107827.29    
2176074801       276403.00      2107857.20    
2176073806       276388.78      2107837.56    
2176073805       276364.00      2107869.90    
2176074802       276417.52      2107846.68    
2176073901       276382.40      2107928.00    
2176073902       276398.10      2107969.90    
2176074502       276493.67      2107573.17    
2176075501       276518.01      2107560.93    
2176074804       276470.70      2107883.30    
2176074803       276445.83      2107856.05    
2176075801       276501.96      2107877.04    
2176075901       276524.40      2107918.90    
2176076402       276643.10      2107458.10    
2176075502       276539.57      2107537.43    
2176075503       276593.53      2107501.52    
2176076501       276616.60      2107500.80    
2176075802       276530.00      2107887.30    
2176075803       276558.31      2107898.04    
2176075903       276585.92      2107908.31    
2176075902       276556.60      2107950.40    
2176076902       276620.40      2107978.00    
2176076901       276614.70      2107919.00    
2176076401       276612.50      2107473.80    
2176076403       276670.79      2107474.63    
2176076405       276686.90      2107481.80    
2176076406       276695.50      2107486.90    
2176077405       276711.50      2107476.30    
2176076502       276685.84      2107555.81    
2176076503       276691.91      2107526.46    
2176076504       276677.10      2107584.40    
2176076601       276640.95      2107697.96    
2176076602       276647.75      2107669.27    
2176076603       276658.91      2107641.34    
2176076604       276669.19      2107613.40    
2176076701       276645.70      2107727.63    
2176076702       276650.04      2107757.30    
2176076703       276663.78      2107783.61    
2176076801       276686.20      2107803.20    
2176076903       276643.57      2107929.09    
2176076904       276672.57      2107997.37    
2176076906       276685.51      2107945.17    
2176076905       276678.94      2107968.15    
2176077901       276702.01      2107902.28    
2176077402       276727.44      2107473.21    
2176077403       276746.48      2107482.04    
2176077404       276776.30      2107483.00    
2176078401       276830.45      2107447.93    
2176077801       276703.90      2107827.03    
2176077802       276708.18      2107883.66    
2176077803       276710.74      2107873.60    
2176077805       276712.30      2107863.52    
2176077804       276711.24      2107842.25    
2176078101       276866.00      2107176.63    
2176079001       276904.79      2107043.65    
2176078201       276857.50      2107234.20    
2176078301       276879.70      2107312.30    
2176078302       276889.24      2107345.30    
2176080601       276040.30      2108628.30    
2176080602       276089.30      2108689.90    
2176080701       276022.70      2108732.50    
2176080702       276085.00      2108792.90    
2176080902       276048.60      2108902.00    
2176080901       276026.60      2108909.80    
2176081001       276121.40      2108018.90    
2176081701       276116.70      2108733.00    
2176081802       276127.10      2108891.40    
2176081803       276135.80      2108834.80    
2176081804       276179.40      2108809.30    
2176082801       276252.10      2108889.00    
2176082901       276215.10      2108926.30    
2176083901       276305.80      2108943.10    
2176084001       276407.20      2108013.70    
2176086001       276673.53      2108028.10    
2176086002       276673.97      2108081.58    
2176086003       276674.37      2108057.85    
2176086004       276675.50      2108098.69    
2176086101       276656.21      2108175.12    
2176086102       276662.93      2108145.88    
2176086103       276671.16      2108116.97    
2176086201       276641.71      2108293.90    
2176086202       276642.69      2108264.01    
2176086203       276645.93      2108234.02    
2176086204       276650.38      2108204.46    
2176086301       276642.36      2108323.89    
2176086302       276645.61      2108353.45    
2176086303       276656.11      2108381.81    
2176086401       276674.51      2108404.55    
2176086402       276696.38      2108425.12    
2176087001       276751.60      2108079.30    
2176087002       276750.60      2108090.30    
2176087401       276716.63      2108447.21    
2176087402       276734.27      2108471.47    
2176087403       276755.82      2108491.93    
2176087501       276780.49      2108509.14    
2176088001       276885.70      2108083.90    
2176088002       276884.30      2108093.70    
2176088501       276804.09      2108527.56    
2176088502       276827.59      2108546.40    
2176088503       276851.40      2108564.37    
2176088504       276875.11      2108582.67    
2176088601       276896.97      2108603.35    
2176088701       276898.90      2108790.08    
2176089701       276922.28      2108729.20    
2176088801       276866.17      2108880.57    
2176088802       276880.99      2108837.70    
2176088901       276840.40      2108964.84    
2176088902       276852.80      2108922.70    
2176089501       276982.20      2108582.73    
2176089607       276971.99      2108610.35    
2176089502       276992.65      2108555.11    
2176089601       276906.51      2108613.74    
2176089602       276922.79      2108631.86    
2176089603       276939.49      2108685.54    
2176089605       276957.15      2108648.28    
2176089604       276940.82      2108642.65    
2176089606       276968.74      2108652.15    
2176089608       276997.71      2108660.71    
2176091001       276169.50      2109015.00    
2176092101       276244.20      2109165.80    
2176092201       276242.50      2109235.00    
2176092502       276273.00      2109548.50    
2176093001       276336.90      2109045.90    
2176093002       276378.30      2109009.60    
2176093102       276364.50      2109113.70    
2176093201       276307.10      2109288.60    
2176093301       276347.20      2109395.80    
2176093401       276360.90      2109491.30    
2176093501       276361.10      2109536.30    
2176093502       276365.80      2109525.40    
2176093701       276389.30      2109703.90    
2176093901       276312.00      2109943.80    
2176093902       276346.20      2109935.60    
2176093903       276372.50      2109931.90    
2176093904       276377.50      2109944.70    
2176094001       276437.20      2109059.40    
2176094201       276417.90      2109221.70    
2176094202       276454.30      2109256.40    
2176094401       276451.70      2109476.70    
2176094501       276485.00      2109539.20    
2176095401       276500.50      2109455.70    
2176094502       276486.80      2109592.50    
2176094901       276406.20      2109941.50    
2176094902       276428.90      2109935.10    
2176095301       276528.10      2109324.70    
2176095402       276584.90      2109400.80    
2176095701       276510.00      2109739.40    
2176095801       276534.20      2109889.40    
2176095901       276593.10      2109982.90    
2176104002       276439.90      2110005.80    
2176096901       276682.30      2109972.60    
2176098001       276837.20      2109001.50    
2176099901       276967.31      2109929.71    
2176099902       276989.66      2109907.35    
2177090801       277011.56      2109883.84    
2176101101       276120.56      2110151.09    
2176101401       276153.60      2110498.70    
2176102002       276295.20      2110021.90    
2176102101       276287.00      2110154.00    
2176102102       276299.70      2110172.90    
2176102201       276268.50      2110211.30    
2176102401       276269.30      2110419.10    
2176102501       276290.36      2110563.34    
2176103001       276344.30      2110013.30    
2176103101       276309.60      2110146.60    
2176103102       276357.90      2110130.20    
2176104003       276447.50      2110069.90    
2176104102       276458.50      2110138.50    
2176104103       276477.30      2110139.40    
2176104201       276473.70      2110237.40    
2176104301       276413.60      2110327.40    
2176104302       276485.80      2110319.30    
2176104601       276429.40      2110619.70    
2176104904       276484.11      2110955.23    
2176105101       276518.10      2110141.80    
2176105102       276531.80      2110171.20    
2176105103       276581.00      2110196.30    
2176105104       276589.20      2110188.60    
2176105301       276506.40      2110385.80    
2176105401       276529.40      2110424.90    
2176105601       276539.80      2110638.50    
2176106101       276606.80      2110178.90    
2176106102       276634.90      2110172.50    
2176106103       276660.50      2110187.10    
2176106201       276688.60      2110206.90    
2176106501       276623.70      2110550.70    
2176106601       276672.10      2110600.00    
2176106602       276681.50      2110612.60    
2176106603       276694.70      2110629.70    
2176107601       276712.00      2110654.10    
2176107101       276746.80      2110146.90    
2176107201       276777.00      2110228.70    
2176107202       276796.10      2110266.50    
2176107602       276729.90      2110678.60    
2176107701       276747.20      2110700.30    
2176107702       276769.60      2110728.60    
2176107703       276792.50      2110760.20    
2176108701       276821.29      2110792.29    
2176107801       276732.05      2110831.63    
2176107802       276765.06      2110816.87    
2176107803       276786.75      2110811.58    
2176108301       276833.50      2110373.20    
2176108401       276879.70      2110415.00    
2176108801       276804.42      2110804.70    
2176108702       276830.14      2110785.49    
2176108703       276848.51      2110772.08    
2176108704       276882.96      2110778.22    
2176109301       276965.70      2110347.50    
2176109302       276981.20      2110347.90    
2177100301       277001.60      2110340.60    
2176109701       276909.35      2110782.97    
2176109702       276927.73      2110761.74    
2176109703       276949.16      2110768.61    
2176109704       276961.50      2110774.94    
2176109705       276984.63      2110775.90    
2176116301       276613.90      2111391.10    
2176118002       276848.10      2111023.70    
2176118003       276853.90      2111025.60    
2176118004       276890.40      2111038.30    
2176118502       276849.77      2111573.03    
2176118503       276880.53      2111591.71    
2176119001       276915.30      2111041.00    
2176119002       276965.20      2111048.49    
2176119003       276987.60      2111051.40    
2176119101       276980.50      2111170.80    
2176119102       276987.30      2111178.20    
2176119901       276907.60      2111958.50    
2176127201       276701.70      2112282.60    
2176129501       276974.60      2112599.10    
2176129602       276972.60      2112618.50    
2176138202       276856.23      2113225.26    
2176138301       276853.00      2113385.10    
2176138401       276855.90      2113435.90    
2177142601       277286.70      2114666.80    
2177060001       277015.50      2106093.10    
2177060201       277040.04      2106274.52    
2177080101       277014.70      2108111.30    
2177080201       277097.75      2108274.22    
2177080304       277086.94      2108301.85    
2177080301       277053.93      2108385.65    
2177080404       277042.54      2108413.50    
2177080302       277065.06      2108357.80    
2177080303       277076.16      2108329.94    
2177080401       277008.89      2108497.08    
2177080501       277001.94      2108526.33    
2177080402       277020.26      2108468.74    
2177080403       277031.65      2108440.66    
2177080601       277025.48      2108672.09    
2177080602       277051.23      2108687.18    
2177080701       277076.79      2108702.47    
2177081102       277137.77      2108193.43    
2177081203       277130.60      2108206.60    
2177081103       277151.23      2108163.61    
2177081104       277172.41      2108162.05    
2177081105       277199.10      2108151.70    
2177081202       277116.00      2108235.00    
2177081701       277102.99      2108717.47    
2177081702       277128.12      2108733.40    
2177081703       277148.31      2108749.24    
2177081704       277150.70      2108750.81    
2177081705       277152.10      2108751.90    
2177081706       277176.38      2108769.39    
2177082101       277247.16      2108170.11    
2177082103       277285.50      2108187.41    
2177082701       277200.62      2108786.92    
2177082801       277225.20      2108804.25    
2177082802       277250.13      2108820.82    
2177082803       277261.53      2108828.34    
2177082804       277262.67      2108830.16    
2177082805       277274.02      2108838.68    
2177082806       277297.83      2108856.97    
2177083201       277311.96      2108200.91    
2177083202       277337.32      2108211.69    
2177083203       277365.93      2108226.80    
2177083801       277320.35      2108876.57    
2177083802       277345.47      2108893.02    
2177083901       277359.00      2108904.93    
2177083902       277381.09      2108919.55    
2177083903       277393.42      2108928.75    
2177084201       277400.47      2108258.14    
2177084301       277488.50      2108325.70    
2177084901       277417.35      2108946.84    
2177084902       277440.84      2108965.35    
2177084903       277464.44      2108984.08    
2177084904       277477.10      2108993.43    
2177090701       277096.26      2109790.70    
2177091701       277118.37      2109767.42    
2177090802       277032.10      2109860.33    
2177090803       277053.34      2109836.58    
2177090804       277074.79      2109813.08    
2177091702       277140.51      2109743.00    
2177091703       277163.79      2109716.18    
2177091704       277168.38      2109705.56    
2177092501       277225.66      2109572.37    
2177091705       277171.70      2109718.80    
2177092601       277220.55      2109635.57    
2177091708       277184.10      2109733.50    
2177092401       277281.90      2109472.51    
2177092402       277293.88      2109443.52    
2177093401       277306.32      2109413.96    
2177092403       277295.18      2109480.75    
2177093402       277307.51      2109449.93    
2177092504       277246.53      2109560.85    
2177092502       277237.61      2109587.58    
2177092503       277238.71      2109581.85    
2177092505       277249.73      2109573.31    
2177092506       277257.82      2109531.17    
2177092507       277262.49      2109558.25    
2177092508       277270.03      2109502.07    
2177092509       277271.28      2109538.28    
2177092510       277282.80      2109508.49    
2177092602       277222.94      2109629.20    
2177092603       277225.97      2109621.71    
2177092604       277229.79      2109611.20    
2177092605       277233.61      2109600.21    
2177092701       277205.80      2109752.40    
2177092702       277222.09      2109774.71    
2177092703       277242.40      2109797.00    
2177092801       277264.50      2109817.50    
2177092802       277284.62      2109836.34    
2177093201       277351.29      2109296.05    
2177093202       277363.27      2109266.61    
2177093203       277376.05      2109237.96    
2177093205       277388.14      2109208.28    
2177093204       277380.25      2109273.47    
2177093206       277392.82      2109244.96    
2177094101       277400.34      2109179.18    
2177094201       277404.89      2109215.27    
2177093301       277318.09      2109384.84    
2177093302       277329.73      2109355.51    
2177093304       277339.20      2109325.27    
2177093303       277332.36      2109391.28    
2177093305       277344.93      2109361.61    
2177093306       277356.54      2109332.59    
2177093307       277368.85      2109302.70    
2177093403       277320.05      2109420.03    
2177093801       277310.28      2109855.85    
2177093802       277336.99      2109875.26    
2177093803       277363.57      2109884.73    
2177093901       277387.64      2109902.99    
2177094001       277436.49      2109091.08    
2177094002       277448.71      2109061.82    
2177094004       277460.58      2109032.60    
2177094003       277452.61      2109098.64    
2177094005       277465.18      2109069.19    
2177094006       277472.66      2109003.61    
2177094007       277478.65      2109037.70    
2177094008       277488.26      2109001.95    
2177094102       277412.43      2109149.97    
2177094104       277422.69      2109124.75    
2177094103       277416.56      2109185.38    
2177094105       277425.23      2109168.03    
2177094106       277429.87      2109105.45    
2177094107       277435.73      2109145.66    
2177094108       277441.44      2109127.64    
2177094901       277410.82      2109921.70    
2177094902       277434.99      2109938.82    
2177094903       277458.72      2109957.42    
2177094904       277481.08      2109973.97    
2177094905       277493.30      2109984.20    
2177095001       277513.39      2109018.08    
2177095002       277539.26      2109033.24    
2177095003       277548.19      2109037.49    
2177095004       277551.10      2109038.97    
2177095005       277558.91      2109054.24    
2177095006       277559.30      2109043.80    
2177095007       277570.11      2109079.04    
2177095101       277589.92      2109101.45    
2177095901!      277587.80      2109998.20    
2177095902!      277595.90      2109988.17    
2177095901       277587.80      2109998.20    
2177095902       277595.90      2109988.17    
2177096901!      277604.34      2109977.56    
2177096901       277604.34      2109977.56    
2177096101       277608.87      2109124.62    
2177096102       277627.71      2109148.01    
2177096103       277646.55      2109171.40    
2177096104       277664.09      2109195.65    
2177096201       277678.16      2109222.07    
2177096202       277690.94      2109249.24    
2177096801!      277663.89      2109897.76    
2177096802!      277665.41      2109896.25    
2177096801       277663.89      2109897.76    
2177096802       277665.41      2109896.25    
2177096803!      277668.33      2109892.68    
2177096803       277668.33      2109892.68    
2177096804!      277689.55      2109871.67    
2177096804       277689.55      2109871.67    
2177096805!      277695.75      2109865.51    
2177096805       277695.75      2109865.51    
2177097806!      277701.10      2109861.20    
2177097806       277701.10      2109861.20    
2177096902!      277620.04      2109957.21    
2177096902       277620.04      2109957.21    
2177096903!      277631.63      2109940.10    
2177096903       277631.63      2109940.10    
2177096905!      277649.92      2109916.17    
2177096905       277649.92      2109916.17    
2177096904!      277642.70      2109956.40    
2177096906!      277659.12      2109904.70    
2177096906       277659.12      2109904.70    
2177096907!      277660.85      2109901.77    
2177096907       277660.85      2109901.77    
2177097201       277704.48      2109276.09    
2177097301       277718.34      2109302.52    
2177097302       277732.75      2109328.94    
2177097303       277746.90      2109355.40    
2177097304       277761.00      2109381.80    
2177097401       277775.95      2109407.75    
2177097402       277789.70      2109434.39    
2177097601       277739.12      2109689.57    
2177097602       277746.59      2109679.18    
2177097603       277750.71      2109664.78    
2177097604       277753.63      2109660.23    
2177097605       277772.03      2109641.93    
2177097606       277792.16      2109619.74    
2177097607       277798.22      2109615.19    
2177098504       277825.93      2109585.20    
2177097701       277707.83      2109751.06    
2177097703       277724.40      2109715.44    
2177097702       277723.09      2109763.40    
2177097704       277747.34      2109781.16    
2177097802       277739.01      2109843.62    
2177097803       277762.61      2109825.33    
2177097805       277775.27      2109814.39    
2177097804       277766.83      2109804.00    
2177097901!      277774.80      2109915.50    
2177097901       277774.80      2109915.50    
2177098901!      277824.20      2109948.20    
2177098901       277824.20      2109948.20    
2177098401       277805.57      2109460.37    
2177098402       277810.17      2109474.01    
2177098403       277812.75      2109481.87    
2177098404       277813.90      2109491.70    
2177098405       277814.70      2109494.70    
2177098406       277847.73      2109462.85    
2177098407       277871.94      2109456.47    
2177098501       277816.44      2109501.63    
2177098502       277819.46      2109518.63    
2177098503       277825.40      2109548.10    
2177098506       277833.84      2109576.65    
2177098505       277826.87      2109555.72    
2177098507       277851.98      2109580.60    
2177098508       277855.38      2109588.37    
2177098509       277855.38      2109599.09    
2177098601       277862.00      2109609.80    
2177098602       277873.42      2109639.26    
2177098603       277895.29      2109654.63    
2177098801       277803.53      2109839.25    
2177098802       277823.41      2109862.52    
2177098803       277843.20      2109885.40    
2178100001!      278007.10      2110066.40    
2178100001       278007.10      2110066.40    
2177098902       277843.31      2109906.59    
2177099401       277900.90      2109448.30    
2177099402       277929.90      2109441.20    
2177099403       277958.64      2109432.74    
2177099404       277988.10      2109425.00    
2177099601       277924.07      2109664.83    
2177099602       277953.56      2109661.81    
2177099603       277983.47      2109657.90    
2177100302       277018.40      2110336.60    
2177100303       277044.95      2110326.23    
2177100304       277053.21      2110323.34    
2177100305       277078.40      2110305.73    
2177101201       277107.35      2110298.44    
2177100701       277014.30      2110776.74    
2177100702       277044.49      2110778.42    
2177100703       277073.95      2110778.74    
2177100704       277098.97      2110766.18    
2177101202       277136.83      2110292.65    
2177101203       277166.64      2110289.54    
2177101204       277196.66      2110287.51    
2177102201       277226.50      2110288.10    
2177101701       277119.23      2110744.00    
2177101702       277122.60      2110740.10    
2177101703       277131.37      2110729.85    
2177101704       277140.55      2110724.68    
2177101705       277170.40      2110726.30    
2177102202       277255.90      2110284.60    
2177102203       277276.30      2110262.90    
2177102204       277296.50      2110240.80    
2177103201       277314.08      2110219.80    
2177102205       277299.10      2110289.00    
2177102301       277277.70      2110371.00    
2177102302       277283.40      2110346.40    
2177102303       277291.50      2110321.20    
2177102304       277298.00      2110306.60    
2177102701       277200.40      2110727.50    
2177102702       277230.40      2110728.80    
2177102703       277243.46      2110729.64    
2177102704       277250.44      2110735.78    
2177103001       277399.72      2110095.79    
2177104001       277418.49      2110072.53    
2177103101       277336.05      2110195.19    
2177103102       277345.60      2110166.90    
2177103103       277361.00      2110141.70    
2177103104       277380.32      2110118.52    
2177103105       277385.40      2110112.60    
2177103106       277393.00      2110103.60    
2177103202       277320.40      2110212.70    
2177103203       277330.50      2110201.40    
2177103301       277346.51      2110392.09    
2177103302       277395.63      2110379.13    
2177104301!      277445.31      2110367.81    
2177104301       277445.31      2110367.81    
2177104002       277429.73      2110059.00    
2177104003       277438.00      2110049.47    
2177104004       277446.70      2110038.90    
2177104006       277453.80      2110030.20    
2177104005       277451.45      2110085.45    
2177104007       277456.98      2110026.41    
2177104008       277473.70      2110007.30    
2177104009       277476.30      2110004.40    
2177104010       277477.43      2110003.07    
2177104101       277470.07      2110108.92    
2177104102       277478.62      2110151.62    
2177104103       277478.92      2110136.70    
2177104104       277481.71      2110166.03    
2177104105       277483.35      2110195.36    
2177104201       277461.13      2110248.05    
2177104203       277467.61      2110220.06    
2177104302!      277487.39      2110359.68    
2177104302       277487.39      2110359.68    
2177105319!      277517.10      2110348.90    
2177105319       277517.10      2110348.90    
2177105006!      277565.80      2110026.50    
2177105007!      277570.02      2110020.97    
2177105006       277565.80      2110026.50    
2177105007       277570.02      2110020.97    
2177105008!      277573.80      2110016.00    
2177105008       277573.80      2110016.00    
2177105009!      277575.80      2110013.50    
2177105009       277575.80      2110013.50    
2177105010!      277577.48      2110011.59    
2177105010       277577.48      2110011.59    
2177105011!      277579.00      2110009.60    
2177105011       277579.00      2110009.60    
2177105012!      277582.10      2110005.50    
2177105012       277582.10      2110005.50    
2177105013!      277549.70      2110092.00    
2177105014!      277551.90      2110062.10    
2177105013       277549.70      2110092.00    
2177105014       277551.90      2110062.10    
2177105015!      277555.70      2110044.50    
2177105015       277555.70      2110044.50    
2177105017!      277559.60      2110036.10    
2177105017       277559.60      2110036.10    
2177105101!      277541.44      2110181.66    
2177105102!      277544.50      2110151.80    
2177105101       277541.44      2110181.66    
2177105102       277544.50      2110151.80    
2177105103!      277547.29      2110121.78    
2177105103       277547.29      2110121.78    
2177105202!      277536.90      2110241.40    
2177105203!      277538.90      2110211.40    
2177105202       277536.90      2110241.40    
2177105203       277538.90      2110211.40    
2177105204!      277533.60      2110271.30    
2177105204       277533.60      2110271.30    
2177105303!      277521.24      2110374.34    
2177105308!      277525.35      2110366.64    
2177105304!      277521.51      2110388.38    
2177105320!      277517.30      2110382.20    
2177105305!      277523.04      2110335.94    
2177105310!      277528.42      2110330.87    
2177105305       277523.04      2110335.94    
2177105310       277528.42      2110330.87    
2177105306!      277523.04      2110344.03    
2177105306       277523.04      2110344.03    
2177105307!      277523.23      2110360.24    
2177105312!      277529.83      2110352.81    
2177105309!      277526.45      2110394.14    
2177105311!      277529.84      2110322.14    
2177105311       277529.84      2110322.14    
2177105313!      277530.23      2110318.64    
2177105313       277530.23      2110318.64    
2177105315!      277538.70      2110345.60    
2177105315       277538.70      2110345.60    
2177105314!      277531.79      2110301.20    
2177105314       277531.79      2110301.20    
2177105316!      277544.56      2110354.26    
2177105316       277544.56      2110354.26    
2177105317!      277569.92      2110371.44    
2177105317       277569.92      2110371.44    
2177105318!      277594.10      2110389.00    
2177105318       277594.10      2110389.00    
2177105401!      277536.71      2110401.70    
2177105402!      277547.24      2110411.96    
2177105403!      277549.66      2110422.76    
2177105404!      277552.91      2110438.69    
2177105405!      277557.49      2110454.87    
2177105406!      277570.98      2110472.43    
2177105407!      277581.52      2110485.66    
2177105408!      277582.79      2110484.46    
2177105501!      277553.18      2110518.61    
2177105502!      277567.76      2110501.33    
2177106401!      277616.40      2110406.30    
2177106401       277616.40      2110406.30    
2177106402!      277637.70      2110425.60    
2177106402       277637.70      2110425.60    
2177106403!      277660.62      2110444.78    
2177106403       277660.62      2110444.78    
2177106404!      277684.22      2110463.51    
2177106404       277684.22      2110463.51    
2177107401!      277707.82      2110482.02    
2177107401       277707.82      2110482.02    
2177107501!      277731.42      2110500.54    
2177107501       277731.42      2110500.54    
2177107502!      277754.70      2110519.48    
2177107502       277754.70      2110519.48    
2177107503!      277777.55      2110539.08    
2177107503       277777.55      2110539.08    
2177108501!      277800.30      2110558.50    
2177108501       277800.30      2110558.50    
2177108502!      277822.92      2110577.95    
2177108502       277822.92      2110577.95    
2177108503!      277846.62      2110596.79    
2177108503       277846.62      2110596.79    
2177108601!      277870.00      2110615.40    
2177108601       277870.00      2110615.40    
2177108602!      277893.50      2110634.00    
2177108602       277893.50      2110634.00    
2177109601!      277916.98      2110652.54    
2177109601       277916.98      2110652.54    
2177109602!      277940.48      2110671.38    
2177109602       277940.48      2110671.38    
2177109603!      277963.90      2110690.00    
2177109603       277963.90      2110690.00    
2177109701!      277988.10      2110707.76    
2177109701       277988.10      2110707.76    
2177109801!      277959.16      2110893.73    
2177109802!      277961.87      2110884.72    
2177109801       277959.16      2110893.73    
2177109802       277961.87      2110884.72    
2177109803!      277976.43      2110848.36    
2177109803       277976.43      2110848.36    
2177109804!      277981.24      2110839.59    
2177109804       277981.24      2110839.59    
2178100801!      278000.19      2110805.17    
2178100801       278000.19      2110805.17    
2177109901!      277948.26      2110988.87    
2177109902!      277949.31      2110940.28    
2177109901       277948.26      2110988.87    
2177109902       277949.31      2110940.28    
2177110001       277008.60      2111070.80    
2177110002       277013.06      2111035.30    
2177110003       277026.70      2111094.60    
2177110101       277044.70      2111118.80    
2177110102       277075.90      2111166.20    
2177110103       277093.60      2111193.90    
2177110104       277097.60      2111156.80    
2177110501       277019.16      2111580.86    
2177110601       277031.46      2111656.35    
2177110602       277039.87      2111655.37    
2177111101       277109.00      2111177.90    
2177111201       277107.20      2111220.90    
2177111202       277121.30      2111247.50    
2177111203       277134.40      2111274.50    
2177111301       277148.24      2111300.94    
2177111302       277162.10      2111327.60    
2177111303       277175.60      2111354.40    
2177111304       277189.12      2111381.06    
2177112301       277220.11      2111391.65    
2177112401       277205.06      2111406.49    
2177112402       277222.30      2111431.02    
2177112403       277245.21      2111449.43    
2177112404       277270.60      2111465.30    
2177112405       277277.34      2111449.75    
2177112406       277295.32      2111475.09    
2177112407       277297.60      2111458.60    
2177113401       277326.64      2111487.60    
2177113402       277354.44      2111498.20    
2177113501       277307.72      2111530.54    
2177113503       277339.53      2111554.57    
2177113505       277348.88      2111526.68    
2177113504       277341.20      2111584.50    
2177113602       277321.43      2111623.39    
2177113603       277343.76      2111612.72    
2177113604       277345.88      2111620.14    
2177113605       277349.40      2111655.80    
2177113701       277351.20      2111709.10    
2177113702       277351.50      2111758.00    
2177113703       277365.10      2111772.80    
2177113801       277368.29      2111832.03    
2177113802       277377.70      2111832.90    
2177113803       277383.60      2111898.13    
2177113804       277391.10      2111891.60    
2177114501       277449.65      2111511.40    
2177114502       277461.72      2111539.54    
2177114503       277469.20      2111519.29    
2177115501       277588.21      2111581.26    
2177115502       277596.11      2111559.60    
2177116202!      277689.60      2111202.37    
2177116201       277623.92      2111240.69    
2177116202       277689.60      2111202.37    
2177117101!      277752.42      2111166.20    
2177117101       277752.42      2111166.20    
2177116502       277639.38      2111597.89    
2177116503       277644.80      2111573.00    
2177116504       277649.48      2111598.33    
2177116701       277671.50      2111712.80    
2177116702       277676.34      2111711.91    
2177118101!      277809.52      2111132.48    
2177118101       277809.52      2111132.48    
2177117801       277722.99      2111816.34    
2177117802       277729.16      2111815.90    
2177117803       277780.55      2111808.98    
2177117804       277783.34      2111836.66    
2177118001!      277872.68      2111094.70    
2177119001!      277930.99      2111057.96    
2177118001       277872.68      2111094.70    
2177119001       277930.99      2111057.96    
2177118801       277853.62      2111837.86    
2177119002!      277953.65      2111042.31    
2177119002       277953.65      2111042.31    
2177119801       277983.14      2111831.21    
2177120501       277012.40      2112587.50    
2177120601       277029.20      2112615.90    
2177120602       277075.60      2112609.10    
2177121801       277104.05      2112828.47    
2177121802       277131.50      2112840.59    
2177121803       277187.73      2112860.88    
2177122801       277217.41      2112865.52    
2177122802       277246.99      2112870.25    
2177122803       277276.56      2112875.47    
2177123801       277306.30      2112879.71    
2177123802       277328.66      2112884.99    
2177123803       277345.90      2112887.82    
2177123901       277343.85      2112908.07    
2177123902       277349.12      2112937.08    
2177123903       277359.40      2112964.03    
2177123904       277385.59      2112976.65    
2177124901       277418.64      2112962.41    
2177124902       277435.82      2112956.79    
2177124903       277454.03      2112957.32    
2177124904       277487.01      2112967.09    
2177124905       277487.29      2112996.15    
2177129001       277989.29      2112024.76    
2178110902       278016.55      2111984.70    
2177129101       277959.48      2112105.44    
2177131601       277115.04      2113642.68    
2177131701       277199.40      2113757.20    
2177134001       277462.87      2113057.90    
2177134002       277473.19      2113033.67    
2177134003       277487.44      2113076.89    
2177135001       277514.80      2113090.49    
2177135101       277545.12      2113103.76    
2177135102       277560.83      2113125.06    
2177135103       277568.37      2113153.89    
2177135104       277576.70      2113183.40    
2177135201       277586.80      2113211.20    
2177135202       277598.50      2113213.30    
2177136201       277614.00      2113206.50    
2177136202       277631.20      2113206.60    
2177136203       277637.20      2113219.00    
2177136204       277639.60      2113232.20    
2177136205       277650.10      2113244.70    
2177136206       277677.80      2113252.50    
2177136207       277682.80      2113254.10    
2177137201       277706.40      2113264.40    
2177137202       277716.30      2113264.00    
2177137203       277728.70      2113246.30    
2177137204       277742.70      2113234.40    
2177137205       277754.80      2113234.70    
2177137206       277778.50      2113242.40    
2177137207       277788.00      2113239.40    
2177137301       277799.20      2113351.80    
2177138201       277812.00      2113254.00    
2177138202       277841.40      2113252.60    
2177138203       277865.40      2113271.30    
2177138204       277867.80      2113284.00    
2177138205       277871.20      2113291.80    
2177138206       277878.30      2113294.50    
2177138401       277805.00      2113460.00    
2177138501       277850.80      2113545.60    
2177138502       277872.40      2113597.00    
2177138601       277888.99      2113619.71    
2177138602       277893.20      2113632.55    
2177138603       277894.05      2113638.65    
2177138604       277896.60      2113648.40    
2177138801       277873.70      2113884.50    
2177138904       277840.95      2113930.38    
2177138901       277802.50      2113986.90    
2177147005       277759.40      2114023.60    
2177138903       277825.80      2113952.80    
2177139201       277901.80      2113284.90    
2177139202       277906.30      2113285.40    
2177139203       277916.20      2113293.00    
2177139301       277913.60      2113325.19    
2177139302       277914.10      2113311.40    
2177139303       277924.20      2113339.20    
2177139304       277926.18      2113371.01    
2177139305       277929.90      2113355.40    
2177139306       277930.04      2113381.29    
2177139307       277942.60      2113394.80    
2177139401       277967.60      2113410.70    
2177139402       277992.90      2113427.70    
2177139502       277946.89      2113539.92    
2177139503       277962.49      2113516.06    
2177139510       277986.00      2113504.30    
2177139504       277971.98      2113531.77    
2177139505       277973.54      2113548.75    
2177139506       277975.68      2113575.42    
2177139509       277979.60      2113567.80    
2177139507       277978.15      2113559.45    
2177139508       277978.72      2113586.69    
2178130402       278008.40      2113484.20    
2177139511       277990.29      2113597.32    
2177139601       277901.76      2113669.17    
2177139602       277904.64      2113692.27    
2177139604       277910.16      2113681.34    
2177139603       277907.47      2113675.70    
2177139605       277994.87      2113600.17    
2177139701       277910.19      2113701.12    
2177139702       277914.67      2113708.44    
2177139703       277930.36      2113719.72    
2177139704       277944.55      2113729.97    
2177139705       277957.26      2113731.10    
2177139706       277978.15      2113726.52    
2177139708       277999.39      2113720.37    
2177143401       277355.60      2114480.70    
2177143801       277340.50      2114893.60    
2177145201       277571.30      2114214.80    
2177145101       277586.60      2114194.90    
2177147001       277700.50      2114054.70    
2177147003       277751.20      2114050.50    
2177155201       277540.45      2115250.54    
2177155401       277559.29      2115417.29    
2177155501       277548.60      2115505.50    
2177155601       277597.50      2115611.50    
2177156901       277660.40      2115931.60    
2177157701       277704.60      2115743.10    
2177163301       277372.70      2116305.90    
2177164101       277407.40      2116173.10    
2178090402       278043.78      2109403.77    
2178090401       278016.60      2109417.20    
2178090601       278012.83      2109660.26    
2178090602       278042.28      2109664.99    
2178090603       278072.18      2109667.54    
2178091403       278136.20      2109483.70    
2178091501       278153.60      2109508.30    
2178091502       278170.60      2109533.00    
2178091503       278186.80      2109558.00    
2178092501       278203.60      2109583.60    
2178091601       278102.09      2109670.45    
2178091602       278131.90      2109673.08    
2178091603       278161.89      2109675.72    
2178092601!      278219.80      2109608.50    
2178092602!      278236.10      2109633.50    
2178092603!      278241.80      2109643.40    
2178092604       278269.30      2109683.50    
2178092701       278287.70      2109710.50    
2178092702       278292.40      2109709.90    
2178093701       278301.40      2109706.40    
2178093601       278344.40      2109699.10    
2178093703       278361.10      2109724.20    
2178093702       278312.10      2109701.60    
2178093704       278377.50      2109748.90    
2178093705       278393.60      2109774.50    
2178094701       278410.30      2109799.30    
2178094801       278426.80      2109824.40    
2178094802       278443.30      2109849.80    
2178094803       278459.90      2109874.60    
2178094804       278476.10      2109899.80    
2178094901       278493.40      2109924.90    
2178095901       278510.10      2109950.70    
2178095902       278525.90      2109974.00    
2178095905       278596.70      2109946.40    
2178097801       278700.10      2109886.00    
2178098801       278813.60      2109830.70    
2178099701       278980.20      2109726.70    
2179090701       279060.50      2109741.80    
2178101101!      278126.20      2110162.90    
2178101101       278126.20      2110162.90    
2178100701!      278014.30      2110722.16    
2178100701       278014.30      2110722.16    
2178100702!      278019.61      2110769.00    
2178100704!      278041.04      2110737.00    
2178100702       278019.61      2110769.00    
2178100704       278041.04      2110737.00    
2178100703!      278032.38      2110732.23    
2178100703       278032.38      2110732.23    
2178100705!      278049.50      2110741.40    
2178100705       278049.50      2110741.40    
2178100706!      278055.13      2110787.66    
2178100707!      278055.55      2110757.78    
2178100706       278055.13      2110787.66    
2178100707       278055.55      2110757.78    
2178100708!      278057.02      2110749.07    
2178100708       278057.02      2110749.07    
2178100709!      278079.19      2110769.01    
2178100709       278079.19      2110769.01    
2178100802!      278057.61      2110817.55    
2178100802       278057.61      2110817.55    
2178100803!      278059.46      2110877.31    
2178100804!      278059.89      2110847.43    
2178100803       278059.46      2110877.31    
2178100804       278059.89      2110847.43    
2178100901!      278060.86      2110907.30    
2178100901       278060.86      2110907.30    
2178100902!      278062.60      2110937.08    
2178100902       278062.60      2110937.08    
2178100903!      278064.12      2110996.96    
2178100904!      278065.42      2110966.96    
2178100903       278064.12      2110996.96    
2178100904       278065.42      2110966.96    
2178102201!      278287.30      2110296.70    
2178102201       278287.30      2110296.70    
2178101701!      278102.29      2110788.40    
2178101701       278102.29      2110788.40    
2178101801!      278124.69      2110808.01    
2178101801       278124.69      2110808.01    
2178101802!      278147.55      2110827.29    
2178101802       278147.55      2110827.29    
2178101803!      278170.53      2110846.66    
2178101803       278170.53      2110846.66    
2178101804!      278193.31      2110866.61    
2178101804       278193.31      2110866.61    
2178104301!      278406.90      2110387.70    
2178104301       278406.90      2110387.70    
2178102801!      278216.47      2110885.07    
2178102801       278216.47      2110885.07    
2178102901!      278241.30      2110902.14    
2178102901       278241.30      2110902.14    
2178102902!      278249.63      2110974.97    
2178102903!      278259.10      2110946.40    
2178102902       278249.63      2110974.97    
2178102903       278259.10      2110946.40    
2178102904!      278263.12      2110918.04    
2178102904       278263.12      2110918.04    
2178104401!      278476.70      2110444.80    
2178104401       278476.70      2110444.80    
2178105401!      278525.20      2110484.00    
2178105101       278574.00      2110150.00    
2178105103       278593.30      2110138.10    
2178105102       278579.70      2110165.10    
2178106101       278604.30      2110130.00    
2178105104       278596.20      2110190.10    
2178105301       278596.20      2110396.40    
2178106204       278667.30      2110288.20    
2178106005       278664.90      2110090.70    
2178106004       278658.40      2110089.20    
2178106006       278687.20      2110096.90    
2178107101       278716.70      2110105.70    
2178106102       278611.80      2110124.30    
2178106103       278635.30      2110106.30    
2178106201       278613.80      2110214.50    
2178106202       278631.10      2110239.20    
2178106203       278649.10      2110263.30    
2178107102       278746.30      2110114.30    
2178107103       278777.30      2110122.60    
2178108101       278807.20      2110125.90    
2178108102       278836.30      2110126.40    
2178108103       278854.10      2110126.70    
2178108104       278888.10      2110109.70    
2178109001       278926.00      2110094.00    
2178109002       278957.50      2110097.20    
2178109101       278983.90      2110107.70    
2178109102       278991.30      2110110.50    
2179100101       279014.20      2110120.70    
2178109601       278999.70      2110672.80    
2179101601       279133.00      2110680.80    
2178109701       278953.80      2110707.10    
2178110001!      278056.54      2111025.54    
2178110001       278056.54      2111025.54    
2178110002!      278058.49      2111054.66    
2178110002       278058.49      2111054.66    
2178110003!      278065.53      2111083.79    
2178110003       278065.53      2111083.79    
2178110101!      278033.50      2111193.26    
2178110102!      278052.56      2111170.10    
2178110101       278033.50      2111193.26    
2178110102       278052.56      2111170.10    
2178110103!      278063.91      2111143.46    
2178110103       278063.91      2111143.46    
2178110104!      278064.78      2111119.32    
2178110104       278064.78      2111119.32    
2178110105!      278066.83      2111103.18    
2178110105       278066.83      2111103.18    
2178110201!      278007.68      2111296.48    
2178110202!      278021.71      2111268.73    
2178110201       278007.68      2111296.48    
2178110202       278021.71      2111268.73    
2178110204!      278043.43      2111248.39    
2178110204       278043.43      2111248.39    
2178110203!      278023.00      2111220.34    
2178110203       278023.00      2111220.34    
2178110301!      278005.30      2111333.57    
2178110301       278005.30      2111333.57    
2178110302!      278012.16      2111364.01    
2178110302       278012.16      2111364.01    
2178110303!      278019.56      2111394.82    
2178110303       278019.56      2111394.82    
2178110304!      278087.43      2111303.19    
2178111302!      278141.67      2111318.03    
2178110304       278087.43      2111303.19    
2178111302       278141.67      2111318.03    
2178110401!      278029.20      2111423.04    
2178110401       278029.20      2111423.04    
2178110402!      278035.79      2111452.27    
2178110402       278035.79      2111452.27    
2178110403!      278042.94      2111481.40    
2178110403       278042.94      2111481.40    
2178110501!      278051.60      2111508.89    
2178110501       278051.60      2111508.89    
2178110502!      278081.37      2111508.89    
2178110502       278081.37      2111508.89    
2178110801       278001.78      2111866.22    
2178110901       278002.31      2111906.16    
2178110903       278026.79      2111945.16    
2178111101!      278187.51      2111165.66    
2178111103!      278196.38      2111139.83    
2178111101       278187.51      2111165.66    
2178111103       278196.38      2111139.83    
2178111102!      278191.25      2111177.45    
2178111102       278191.25      2111177.45    
2178112102!      278202.37      2111118.81    
2178112102       278202.37      2111118.81    
2178111201!      278179.40      2111221.70    
2178111201       278179.40      2111221.70    
2178111301!      278138.33      2111359.95    
2178111301       278138.33      2111359.95    
2178111303!      278154.50      2111308.09    
2178111303       278154.50      2111308.09    
2178111501!      278111.36      2111508.89    
2178111501       278111.36      2111508.89    
2178111502!      278141.24      2111512.36    
2178111502       278141.24      2111512.36    
2178111503!      278170.47      2111518.63    
2178111503       278170.47      2111518.63    
2178111504!      278199.17      2111527.30    
2178111504       278199.17      2111527.30    
2178112001!      278211.87      2111089.56    
2178112002!      278221.44      2111060.25    
2178112001       278211.87      2111089.56    
2178112002       278221.44      2111060.25    
2178112003!      278231.17      2111032.07    
2178112003       278231.17      2111032.07    
2178112004!      278240.40      2111003.40    
2178112004       278240.40      2111003.40    
2178112101!      278200.33      2111142.85    
2178112101       278200.33      2111142.85    
2178112103!      278215.06      2111147.95    
2178112103       278215.06      2111147.95    
2178112104!      278258.56      2111161.19    
2178112104       278258.56      2111161.19    
2178112105       278273.55      2111166.53    
2178112106       278288.10      2111171.60    
2178112401!      278204.23      2111422.55    
2178112401       278204.23      2111422.55    
2178112402!      278254.95      2111470.11    
2178112501!      278227.75      2111536.07    
2178112501       278227.75      2111536.07    
2178112502!      278256.32      2111545.16    
2178112502       278256.32      2111545.16    
2178112503!      278284.25      2111555.77    
2178112503       278284.25      2111555.77    
2178113101       278316.20      2111180.20    
2178113102       278321.14      2111182.31    
2178113103       278332.38      2111186.84    
2178113501!      278312.50      2111566.49    
2178113501       278312.50      2111566.49    
2178113503!      278340.54      2111577.10    
2178113503       278340.54      2111577.10    
2178113504!      278368.57      2111587.60    
2178113504       278368.57      2111587.60    
2178113505!      278396.72      2111598.20    
2178113505       278396.72      2111598.20    
2178114601!      278424.97      2111607.95    
2178114601       278424.97      2111607.95    
2178114602!      278453.34      2111617.48    
2178114602       278453.34      2111617.48    
2178114603!      278481.92      2111627.01    
2178114603       278481.92      2111627.01    
2178115601!      278510.51      2111636.11    
2178115601       278510.51      2111636.11    
2178115602!      278539.09      2111645.21    
2178115602       278539.09      2111645.21    
2178115603!      278567.78      2111654.19    
2178115603       278567.78      2111654.19    
2178115604!      278596.37      2111663.18    
2178115604       278596.37      2111663.18    
2178115901!      278578.00      2111991.60    
2178115902!      278584.60      2111987.20    
2178115901       278578.00      2111991.60    
2178115902       278584.60      2111987.20    
2178116901!      278642.20      2111962.00    
2178116901       278642.20      2111962.00    
2178116601!      278625.16      2111671.73    
2178116601       278625.16      2111671.73    
2178116602!      278654.05      2111680.07    
2178116602       278654.05      2111680.07    
2178116603!      278678.29      2111686.62    
2178116603       278678.29      2111686.62    
2178116701!      278662.40      2111767.30    
2178116702!      278662.80      2111721.40    
2178116701       278662.40      2111767.30    
2178116702       278662.80      2111721.40    
2178116801!      278668.10      2111851.20    
2178116801       278668.10      2111851.20    
2178116902!      278647.40      2111959.90    
2178116902       278647.40      2111959.90    
2178116904!      278671.40      2111953.30    
2178116904       278671.40      2111953.30    
2178116903!      278669.70      2111929.80    
2178116903       278669.70      2111929.80    
2178123901       278350.93      2112992.27    
2178133003       278332.88      2113016.39    
2178123902       278370.08      2112969.22    
2178123903       278390.62      2112947.26    
2178124101!      278490.70      2112196.90    
2178125101!      278520.10      2112197.40    
2178124101       278490.70      2112196.90    
2178125101       278520.10      2112197.40    
2178124201!      278468.40      2112236.60    
2178124202!      278473.10      2112203.60    
2178124202       278473.10      2112203.60    
2178124801       278461.89      2112887.86    
2178124902       278437.05      2112905.77    
2178124802       278484.20      2112872.40    
2178124901       278412.03      2112926.26    
2178125001!      278550.10      2112048.30    
2178125002!      278553.50      2112046.40    
2178125001       278550.10      2112048.30    
2178125002       278553.50      2112046.40    
2178125003!      278563.60      2112041.30    
2178125003       278563.60      2112041.30    
2178125005!      278595.90      2112027.50    
2178125005       278595.90      2112027.50    
2178125004!      278577.70      2112097.10    
2178125004       278577.70      2112097.10    
2178125102!      278540.30      2112185.60    
2178125102       278540.30      2112185.60    
2178125103!      278569.70      2112171.60    
2178125103       278569.70      2112171.60    
2178125801       278529.50      2112837.40    
2178125901       278546.70      2112924.80    
2178126901       278622.20      2112917.20    
2178127901       278722.20      2112961.60    
2178128901       278823.00      2112967.40    
2178130401       278000.20      2113434.20    
2178130403       278035.90      2113449.00    
2178130404       278067.37      2113432.26    
2178130405       278073.96      2113418.97    
2178130406       278080.10      2113424.20    
2178130407       278083.80      2113408.70    
2178130408       278099.40      2113439.80    
2178130501       278087.14      2113596.09    
2178130608       278076.58      2113609.88    
2178130601       278001.59      2113604.65    
2178130602       278019.83      2113615.24    
2178130603       278028.58      2113613.92    
2178130604       278040.70      2113610.75    
2178130605       278053.89      2113615.96    
2178130606       278059.80      2113619.08    
2178130607       278066.92      2113622.76    
2178130609       278098.60      2113602.70    
2178130701       278016.52      2113723.17    
2178130702       278023.85      2113757.77    
2178130706       278036.34      2113733.54    
2178130703       278023.90      2113765.17    
2178130704       278027.86      2113724.52    
2178130705       278028.25      2113773.84    
2178130707       278037.16      2113775.90    
2178130708       278043.69      2113776.36    
2178130709       278050.33      2113790.91    
2178130710       278058.50      2113795.49    
2178130711       278080.82      2113796.69    
2178130801       278082.50      2113814.80    
2178130802       278086.34      2113829.45    
2178130803       278095.17      2113841.14    
2178130901       278060.20      2113958.60    
2178131201       278174.54      2113297.03    
2178131304       278158.35      2113322.73    
2178131202       278189.16      2113270.94    
2178131301       278105.20      2113387.30    
2178131302       278125.60      2113365.30    
2178131303       278140.31      2113344.74    
2178131401       278107.99      2113444.47    
2178131402       278130.50      2113438.38    
2178131403       278153.80      2113424.00    
2178131404       278162.20      2113421.60    
2178131405       278183.23      2113435.47    
2178131406       278194.81      2113444.30    
2178131601       278111.68      2113607.73    
2178131602       278120.95      2113620.29    
2178131603       278125.42      2113626.18    
2178131604       278146.12      2113619.41    
2178131605       278170.83      2113610.27    
2178131606       278185.12      2113604.21    
2178131607       278192.07      2113623.66    
2178131608       278198.10      2113643.40    
2178131801       278106.53      2113850.78    
2178131802       278121.72      2113856.17    
2178131803       278139.10      2113861.79    
2178131804       278148.18      2113866.11    
2178131805       278170.67      2113882.90    
2178131806       278174.08      2113884.91    
2178131901       278134.80      2113997.70    
2178131902       278199.30      2113900.20    
2178132001       278287.94      2113085.53    
2178132104       278274.14      2113112.23    
2178132101       278232.00      2113191.20    
2178132202       278217.62      2113217.62    
2178132102       278244.97      2113165.05    
2178132103       278259.73      2113138.67    
2178132201       278202.86      2113244.71    
2178132401       278205.00      2113449.00    
2178132402       278210.14      2113449.79    
2178132403       278220.30      2113440.20    
2178132404       278230.30      2113436.40    
2178132405       278240.50      2113442.90    
2178132406       278251.20      2113457.70    
2178132407       278261.80      2113469.80    
2178132408       278277.00      2113484.70    
2178132501       278288.26      2113512.29    
2178132601       278208.04      2113641.70    
2178132602       278222.33      2113639.51    
2178132603       278226.32      2113654.96    
2178132604       278233.01      2113674.80    
2178132605       278236.62      2113685.49    
2178132606       278264.50      2113678.60    
2178132607       278294.18      2113673.89    
2178132901       278226.80      2113914.10    
2178132902       278244.50      2113937.30    
2178132906       278266.10      2113998.00    
2178133001       278308.16      2113063.75    
2178133002       278316.80      2113037.50    
2178133401       278337.18      2113494.78    
2178133501       278315.16      2113503.46    
2178133402       278355.43      2113487.56    
2178133403       278360.91      2113467.36    
2178133404       278385.52      2113460.60    
2178133601       278302.83      2113672.84    
2178133602       278312.17      2113692.14    
2178133701       278324.69      2113719.63    
2178133702       278331.70      2113749.11    
2178133703       278337.18      2113765.83    
2178133704       278339.64      2113769.21    
2178133705       278344.76      2113771.89    
2178133706       278373.92      2113768.19    
2178133707       278391.15      2113767.57    
2178133708       278398.05      2113781.08    
2178133901       278391.30      2113953.50    
2178134401       278421.08      2113457.31    
2178134402       278461.13      2113453.15    
2178134403       278483.50      2113452.11    
2178134801       278409.12      2113808.46    
2178134802       278424.06      2113835.61    
2178134803       278434.53      2113843.71    
2178134804       278439.89      2113845.42    
2178134805       278449.10      2113842.00    
2178134806       278457.30      2113837.50    
2178134809       278486.70      2113870.50    
2178135401       278508.13      2113448.63    
2178135402       278533.96      2113456.27    
2178135403       278553.90      2113485.60    
2178135404       278555.10      2113463.40    
2178135801       278536.90      2113882.60    
2178135802       278563.60      2113883.70    
2178135803       278591.10      2113868.40    
2178136401       278610.84      2113490.26    
2178136402       278647.90      2113489.40    
2178136403       278654.70      2113497.00    
2178136404       278666.60      2113496.20    
2178136501       278675.00      2113528.30    
2178136502       278682.70      2113562.90    
2178136503       278695.30      2113599.20    
2178136701       278602.80      2113771.70    
2178136801       278656.00      2113869.10    
2178137601       278702.80      2113630.40    
2178137602       278706.20      2113649.10    
2178137603       278728.00      2113678.70    
2178137801       278754.80      2113868.10    
2178138101       278842.40      2113151.90    
2178138601       278882.20      2113635.70    
2178139601       278979.50      2113605.30    
2178142001       278270.89      2114025.56    
2178142002       278276.46      2114085.39    
2178142005       278295.16      2114076.99    
2178142003       278282.14      2114049.76    
2178142004       278292.60      2114071.60    
2178142101       278263.60      2114152.82    
2178142104       278285.10      2114132.20    
2178142102       278268.61      2114181.50    
2178142103       278278.62      2114100.42    
2178142201       278279.63      2114206.52    
2178142202       278280.89      2114214.37    
2178142203       278285.67      2114239.51    
2178142204       278293.87      2114268.41    
2178143001       278324.30      2114058.10    
2178143002       278342.42      2114051.28    
2178143003       278349.20      2114049.20    
2178143004       278352.90      2114048.43    
2178143005       278363.25      2114050.72    
2178143006       278372.21      2114068.84    
2178143007       278398.84      2114080.49    
2178143201       278303.66      2114295.85    
2178143301       278317.30      2114323.60    
2178143302       278327.70      2114352.04    
2178143303       278335.34      2114381.68    
2178143401       278347.75      2114407.33    
2178143402       278359.90      2114434.60    
2178144001       278425.79      2114093.56    
2178144101       278438.04      2114110.71    
2178144102       278447.02      2114112.35    
2178144103       278463.82      2114112.10    
2178144104       278476.40      2114115.04    
2178144105       278490.21      2114118.32    
2178144106       278497.38      2114121.79    
2178145101       278502.84      2114127.35    
2178145102       278516.03      2114142.40    
2178145103       278524.38      2114147.46    
2178145104       278533.96      2114150.66    
2178145105       278553.46      2114153.18    
2178145106       278576.35      2114153.97    
2178145107       278581.12      2114162.78    
2178146101       278600.23      2114190.37    
2178146201       278624.11      2114202.60    
2178146202       278636.40      2114214.20    
2178146203       278649.00      2114211.00    
2178146204       278669.90      2114214.80    
2178146205       278678.30      2114217.30    
2178146206       278686.40      2114233.90    
2178146207       278692.40      2114245.40    
2178146208       278695.00      2114279.70    
2178146209       278695.44      2114257.08    
2178147001       278769.69      2114045.43    
2178147201       278720.20      2114270.60    
2178147202       278738.40      2114266.40    
2178147203       278758.00      2114265.00    
2178147204       278763.10      2114286.80    
2178147301       278768.90      2114315.90    
2178147302       278773.30      2114335.30    
2178148201       278800.44      2114208.46    
2178148301       278804.50      2114332.10    
2178148401       278818.50      2114448.00    
2178148501       278830.88      2114544.47    
2178148701       278847.53      2114709.14    
2178148801       278863.54      2114810.24    
2178149701       278943.77      2114798.59    
2179090702       279075.70      2109712.44    
2179092601       279208.20      2109686.20    
2179093701       279324.70      2109704.40    
2179094801       279423.90      2109893.60    
2179094802       279496.90      2109869.70    
2179107001       279712.50      2110017.20    
2179098801       279827.80      2109895.10    
2179098802       279892.80      2109867.80    
2179099902       279938.20      2109935.70    
2179098901       279886.40      2109993.70    
2179098902       279891.90      2109982.20    
2179099901       279914.80      2109956.60    
2179099903       279973.90      2109923.60    
2179099904       279993.40      2109925.30    
2180090901       280023.20      2109927.30    
2179100102       279041.70      2110132.70    
2179100103       279070.10      2110143.60    
2179100104       279096.80      2110157.00    
2179101101       279123.60      2110169.80    
2179100801       279054.30      2110853.30    
2179101102       279150.20      2110184.50    
2179101103       279176.90      2110197.00    
2179102201       279209.50      2110210.70    
2179101401       279133.40      2110452.40    
2179102401       279271.30      2110409.70    
2179101901       279145.00      2110985.10    
2179102101       279230.80      2110196.30    
2179102102       279249.00      2110188.90    
2179102103       279258.60      2110193.20    
2179102202       279274.10      2110218.80    
2179102203       279287.00      2110247.80    
2179102204       279299.40      2110274.40    
2179103301       279312.10      2110306.20    
2179103306       279355.60      2110386.50    
2179103201       279357.00      2110294.70    
2179103202       279360.70      2110291.10    
2179103203       279393.60      2110250.50    
2179104201       279412.50      2110228.10    
2179103302       279318.90      2110312.20    
2179103303       279326.50      2110313.80    
2179103305       279350.80      2110301.00    
2179103304       279342.31      2110334.73    
2179104101       279463.00      2110191.80    
2179104102       279490.50      2110175.90    
2179105101       279513.60      2110157.60    
2179104202       279434.60      2110206.20    
2179105001       279573.60      2110092.50    
2179105002       279596.20      2110073.00    
2179106001       279601.30      2110068.90    
2179105102       279536.60      2110136.50    
2179105103       279554.00      2110114.40    
2179106002       279619.10      2110064.50    
2179106003       279637.30      2110064.90    
2179106004       279654.60      2110067.70    
2179106005       279683.60      2110073.40    
2179107002       279713.00      2110080.80    
2179107003       279742.10      2110088.10    
2179107004       279771.50      2110094.80    
2179107005       279787.40      2110096.40    
2179107006       279799.40      2110093.40    
2179108001       279810.70      2110089.40    
2179108002       279828.90      2110079.40    
2179108003       279831.50      2110075.80    
2179108004       279846.50      2110053.40    
2179108005       279851.40      2110046.10    
2179108006       279878.70      2110004.80    
2179111103       279186.00      2111163.10    
2179112101       279243.60      2111126.60    
2179111202       279187.10      2111256.50    
2179111203       279188.80      2111250.60    
2179111204       279194.90      2111232.40    
2179111206       279198.70      2111221.20    
2179111205       279197.50      2111286.60    
2179111301       279193.10      2111320.70    
2179111302       279194.30      2111308.10    
2179111304       279195.30      2111303.40    
2179111303       279194.40      2111328.90    
2179112301       279201.60      2111338.20    
2179112302       279217.00      2111358.70    
2179112303       279217.40      2111368.30    
2179112304       279218.80      2111398.00    
2179112401       279219.00      2111403.00    
2179112402       279234.40      2111411.00    
2179112403       279235.80      2111414.70    
2179112404       279240.40      2111426.50    
2179112405       279248.40      2111446.90    
2179112406       279257.30      2111475.40    
2179112501       279265.20      2111503.90    
2179112502       279276.20      2111515.00    
2179112503       279290.44      2111507.15    
2179112801       279246.06      2111884.60    
2179112802       279254.50      2111876.20    
2179112804       279276.10      2111854.20    
2179112803       279259.20      2111898.70    
2179112805       279284.50      2111838.20    
2179112806       279292.50      2111832.10    
2179113801       279313.66      2111810.63    
2179112901       279249.20      2111999.10    
2179112902       279259.90      2111988.80    
2179112905       279270.50      2111972.70    
2179112903       279265.80      2111947.80    
2179112904       279266.94      2111934.48    
2179112907       279274.19      2111923.90    
2179112906       279271.90      2111964.40    
2179112908       279277.20      2111916.10    
2179113501       279302.60      2111556.10    
2179113504       279303.70      2111524.30    
2179113502       279302.70      2111506.55    
2179113503       279302.70      2111568.00    
2179113505       279305.30      2111585.50    
2179113601       279308.20      2111615.50    
2179113602       279310.10      2111645.80    
2179113603       279311.00      2111675.80    
2179113701       279309.90      2111720.50    
2179113704       279315.00      2111705.20    
2179113702       279313.20      2111735.60    
2179113703       279314.60      2111700.20    
2179113705       279317.08      2111795.86    
2179113707       279322.90      2111792.70    
2179113706       279321.50      2111764.50    
2179113708       279325.80      2111784.30    
2179113802       279314.11      2111800.28    
2179121001       279152.50      2112054.00    
2179121002       279154.30      2112047.70    
2179121005       279176.30      2112037.30    
2179121003       279157.10      2112087.70    
2179121004       279157.70      2112083.70    
2179121006       279192.50      2112027.40    
2179121007       279197.20      2112019.50    
2179122001       279205.50      2112004.60    
2179121101       279120.70      2112113.40    
2179121102       279122.40      2112108.90    
2179121106       279145.70      2112101.90    
2179121103       279122.40      2112126.90    
2179121104       279133.10      2112138.60    
2179121105       279136.00      2112142.00    
2179121107       279150.40      2112163.20    
2179121108       279167.30      2112188.00    
2179121201       279181.10      2112206.00    
2179121202       279187.30      2112209.60    
2179121802       279198.20      2112811.40    
2179122701       279209.40      2112799.40    
2179122002       279220.20      2112003.80    
2179122003       279244.20      2112002.50    
2179122201       279211.60      2112285.10    
2179122202       279214.70      2112279.20    
2179122203       279215.50      2112277.60    
2179122205       279226.90      2112258.90    
2179122204       279217.40      2112226.50    
2179122207       279227.90      2112253.90    
2179122206       279227.40      2112250.00    
2179122301       279203.60      2112311.30    
2179122303       279205.30      2112305.90    
2179122302       279204.80      2112329.50    
2179122304       279206.30      2112335.50    
2179122305       279210.60      2112354.30    
2179122306       279215.50      2112363.60    
2179122307       279223.30      2112376.30    
2179122308       279227.70      2112385.90    
2179122309       279230.50      2112390.60    
2179122401       279244.70      2112416.10    
2179122402       279249.70      2112452.30    
2179122403       279250.90      2112435.70    
2179122404       279252.60      2112432.20    
2179122405       279255.20      2112435.10    
2179122406       279259.40      2112444.30    
2179122407       279268.90      2112447.80    
2179122408       279294.60      2112424.30    
2179122501       279246.00      2112577.30    
2179122506       279282.00      2112557.60    
2179122502       279261.10      2112502.10    
2179122503       279263.90      2112511.30    
2179122504       279279.40      2112544.10    
2179122505       279281.90      2112549.60    
2179122507       279283.70      2112553.40    
2179122601       279224.30      2112689.80    
2179122602       279225.20      2112679.60    
2179122603       279231.80      2112669.10    
2179122604       279237.60      2112656.80    
2179122605       279240.90      2112654.10    
2179122606       279255.00      2112651.00    
2179122607       279259.70      2112648.40    
2179122608       279259.90      2112642.70    
2179122702       279217.00      2112750.00    
2179122703       279217.40      2112739.50    
2179122704       279226.60      2112705.80    
2179123401       279306.10      2112418.20    
2179123402       279317.00      2112424.10    
2179123403       279341.10      2112450.60    
2179123404       279343.50      2112470.50    
2179123406       279345.90      2112459.70    
2179123405       279343.50      2112481.50    
2179123501       279343.20      2112556.90    
2179123505       279350.90      2112543.90    
2179123502       279344.20      2112564.90    
2179123503       279348.00      2112501.00    
2179123504       279349.20      2112571.50    
2179123507       279354.40      2112534.50    
2179123506       279352.80      2112519.20    
2179123508       279354.90      2112530.10    
2179123509       279355.20      2112526.00    
2179123510       279364.10      2112579.00    
2179123511       279366.10      2112584.60    
2179123601       279361.90      2112606.40    
2179123602       279366.90      2112612.40    
2179123603       279384.80      2112613.40    
2179123604       279386.69      2112614.42    
2179123605       279387.53      2112615.09    
2179123606       279392.80      2112666.20    
2179123609       279399.60      2112648.10    
2179123607       279394.80      2112669.00    
2179123608       279397.50      2112628.70    
2179124602       279400.30      2112641.50    
2179124601       279400.00      2112677.30    
2179124603       279409.30      2112684.70    
2179124604       279430.70      2112688.00    
2179124605       279448.00      2112698.60    
2179124701       279449.60      2112700.40    
2179124702       279451.70      2112777.80    
2179124704       279457.70      2112748.10    
2179124703       279456.80      2112709.90    
2179124705       279461.60      2112733.10    
2179124706       279461.70      2112717.70    
2179124801       279446.20      2112816.60    
2179124803       279452.70      2112807.50    
2179124802       279447.60      2112827.10    
2179124804       279457.60      2112870.00    
2179124806       279459.30      2112850.00    
2179124805       279458.20      2112839.00    
2179124807       279475.50      2112877.90    
2179124808       279485.30      2112882.10    
2179124901       279488.50      2112914.90    
2179124902       279490.70      2112939.30    
2179124903       279491.70      2112973.70    
2179124904       279492.10      2112968.00    
2179124905       279493.90      2112947.90    
2179130501       279058.50      2113570.30    
2179130601       279067.60      2113603.70    
2179130602       279075.20      2113638.70    
2179134001       279471.30      2113087.00    
2179134003       279472.40      2113068.40    
2179134002       279471.70      2113095.00    
2179134004       279473.20      2113058.00    
2179134005       279480.70      2113032.30    
2179134006       279483.50      2113002.10    
2179134101       279470.80      2113145.80    
2179134102       279471.50      2113117.30    
2179134103       279472.70      2113154.70    
2179134104       279482.20      2113174.00    
2179134201       279486.90      2113204.60    
2179134202       279492.20      2113229.90    
2179135201       279511.80      2113233.20    
2179135202       279527.30      2113236.60    
2179135203       279541.50      2113255.66    
2179135204       279548.20      2113284.70    
2179135301       279553.50      2113300.90    
2179135302       279559.00      2113312.50    
2179135303       279571.70      2113339.50    
2179135304       279584.80      2113366.50    
2179135305       279588.90      2113394.70    
2179135306       279589.60      2113375.10    
2179135401       279585.70      2113403.60    
2179140701       279026.97      2114754.10    
2179141601       279119.30      2114650.90    
2179141701       279120.93      2114712.91    
2179155101       279596.60      2115165.40    
2179156301       279657.00      2115323.20    
2179156401       279630.10      2115410.50    
2179157101       279724.10      2115165.40    
2179158201       279858.40      2115212.40    
2180090902       280053.10      2109930.70    
2180090903       280082.00      2109945.00    
2180091901       280111.90      2109949.90    
2180091501       280133.95      2109589.22    
2180091502       280183.90      2109503.40    
2180092401       280219.91      2109440.87    
2180091601       280115.50      2109686.10    
2180091602       280116.90      2109660.80    
2180091701       280105.40      2109758.30    
2180091702       280107.30      2109745.60    
2180091704       280112.30      2109715.80    
2180091703       280107.40      2109776.00    
2180091801       280113.50      2109805.40    
2180091802       280118.60      2109842.80    
2180091803       280136.60      2109860.90    
2180091804       280155.60      2109883.80    
2180091902       280136.40      2109937.80    
2180091903       280152.80      2109906.70    
2180093301       280323.40      2109346.70    
2180094301       280444.30      2109382.80    
2180096401       280632.50      2109453.20    
2180098501       280847.25      2109537.75    
2181091901       281129.87      2109955.80    
2180099502       280921.36      2109568.02    
2181090601       281022.11      2109649.64    
2180119909       280943.50      2111971.50    
2180119907       280932.80      2111988.70    
2180119910       280951.70      2111961.20    
2181111701       281103.30      2111746.10    
2180128201       280883.70      2112267.80    
2180128202       280886.00      2112258.20    
2180129201       280903.10      2112233.30    
2180128203       280887.00      2112282.10    
2180128204       280896.10      2112298.40    
2180128901       280805.40      2112999.10    
2180138001       280864.60      2113030.70    
2180129001       280918.20      2112077.10    
2180129002       280922.80      2112057.10    
2180129003       280929.80      2112028.20    
2180129101       280921.10      2112176.00    
2180129102       280922.10      2112167.10    
2180129105       280922.50      2112145.60    
2180129103       280922.50      2112100.40    
2180129104       280922.50      2112115.60    
2180129202       280915.60      2112213.40    
2180129301       280900.90      2112311.90    
2180129302       280910.40      2112342.50    
2180129306       280933.50      2112358.10    
2180129308       280938.60      2112360.80    
2180129309       280958.60      2112371.70    
2180129310       280976.20      2112382.30    
2180129801       280976.90      2112863.70    
2180129803       280997.40      2112846.40    
2180129802       280988.30      2112890.90    
2181120801       281013.40      2112832.60    
2180133301       280316.80      2113357.60    
2180132307       280271.60      2113386.50    
2180132401       280280.40      2113414.20    
2180132501       280201.60      2113583.80    
2180132502       280215.60      2113524.20    
2180132503       280266.80      2113532.70    
2180132504       280275.70      2113503.90    
2180134201       280416.90      2113293.60    
2180135101       280568.70      2113196.70    
2180136001       280689.60      2113095.80    
2181120903       281006.40      2112929.40    
2180140601       280073.20      2114668.70    
2181091801       281100.32      2109822.19    
2181101103       281187.60      2110120.70    
2181104401       281481.60      2110439.70    
2181107401       281742.05      2110474.55    
2182100401       282040.20      2110471.54    
2181107901       281723.40      2110941.70    
2181107902       281731.38      2110952.28    
2181112501       281247.70      2111502.80    
2181113501       281301.20      2111539.30    
2181113503       281356.50      2111501.40    
2181114401       281417.80      2111496.20    
2181117102       281770.40      2111153.20    
2181120301       281008.20      2112382.70    
2181120302       281043.80      2112388.00    
2181120401       281066.30      2112494.00    
2181120601       281023.00      2112670.80    
2181120602       281023.20      2112660.70    
2181120603       281024.30      2112657.80    
2181120604       281049.80      2112630.10    
2181120701       281016.70      2112791.10    
2181120703       281020.60      2112762.40    
2181120702       281019.20      2112731.00    
2181120704       281023.60      2112701.10    
2181120802       281013.60      2112820.90    
2181120901       281003.00      2112921.10    
2181120902       281004.70      2112924.70    
2182096801       282682.61      2109815.43    
2182097501       282756.38      2109594.17    
2182098301       282841.40      2109349.50    
2182099001       282938.40      2109041.90    
2182102301       282282.00      2110333.41    
2182104101       282487.94      2110144.91    
2175084101       275491.75      2108189.38    
2175084201       275482.70      2108239.70    
2175086301       275623.80      2108335.60    
2175087701       275756.20      2108780.36    
2175087401       275727.30      2108457.70    
2175088601       275824.50      2108614.70    
2175088701       275896.00      2108793.20    
2176047503       276722.50      2104521.00    
2175089901       275955.80      2108940.10    
2176091201       276125.10      2109276.00    
2176092501       276239.70      2109544.80    
2176092901       276267.00      2109950.60    
2176101102       276134.02      2110157.32    
2176100401       276070.90      2110475.40    
2176102001       276266.80      2110010.60    
2176101101!      276183.60      2110189.80    
2176101201       276178.00      2110247.80    
2176105901       276523.10      2110934.10    
2176106801       276689.80      2110853.80    
2176116302       276629.20      2111371.60    
2176118001       276842.20      2111022.10    
2176118501       276804.87      2111587.56    
2176118801       276816.80      2111899.10    
2176127202       276779.60      2112283.90    
2176129601       276926.40      2112635.30    
2176138203       276864.77      2113213.04    
2176138302       276892.50      2113336.50    
2177105016!      277564.20      2110047.60    
2177105016       277564.20      2110047.60    
2177120801       277076.91      2112815.67    
2177131501       277132.97      2113577.87    
2177133701       277336.70      2113758.70    
2177145501       277521.07      2114526.56    
2177146201       277665.20      2114216.40    
2177146002       277656.50      2114070.50    
2177155202       277579.60      2115259.30    
2177157901       277711.10      2115946.80    
2177157801       277755.60      2115831.80    
2177164301       277444.80      2116316.10    
2177165201       277502.50      2116280.60    
2178105401       278525.20      2110484.00    
2179155401       279599.90      2115491.00    
2183082601       283221.70      2108648.50    

[REPORT]
INPUT                YES
CONTROLS             NO
SUBCATCHMENTS        ALL
NODES                ALL
LINKS                ALL

